* Generated by MPModelProtoExporter
*   Name             : 
*   Format           : Free
*   Constraints      : 2696
*   Variables        : 1514
*     Binary         : 0
*     Integer        : 0
*     Continuous     : 1514
NAME          
ROWS
 N  COST
 E  A_HV.theta_zero_0
 E  A_HV.theta_zero_1
 E  A_HV.theta_zero_2
 E  A_HV.theta_zero_3
 E  A_HV.theta_zero_4
 E  A_HV.theta_zero_5
 E  A_HV.theta_zero_6
 E  A_HV.theta_zero_7
 E  A_HV.theta_zero_8
 E  A_HV.theta_zero_9
 E  A_HV.theta_zero_10
 E  A_HV.theta_zero_11
 E  A_HV.theta_zero_12
 E  A_HV.theta_zero_13
 E  A_HV.theta_zero_14
 E  A_HV.theta_zero_15
 E  A_HV.theta_zero_16
 E  A_HV.theta_zero_17
 E  A_HV.theta_zero_18
 E  A_HV.theta_zero_19
 E  A_HV.theta_zero_20
 E  A_HV.theta_zero_21
 E  A_HV.theta_zero_22
 E  A_HV.theta_zero_23
 E  A_HV.theta_zero_24
 E  A_HV.theta_zero_25
 E  A_HV.theta_zero_26
 E  A_HV.theta_zero_27
 E  A_HV.theta_zero_28
 E  A_HV.theta_zero_29
 E  A_HV.theta_zero_30
 E  A_HV.theta_zero_31
 E  A_HV.theta_zero_32
 E  A_HV.theta_zero_33
 E  A_HV.theta_zero_34
 E  A_HV.theta_zero_35
 E  A_HV.theta_zero_36
 E  A_HV.theta_zero_37
 E  A_HV.theta_zero_38
 E  A_HV.theta_zero_39
 E  A_HV.theta_zero_40
 E  A_HV.theta_zero_41
 E  A_HV.theta_zero_42
 E  A_HV.theta_zero_43
 E  A_HV.theta_zero_44
 E  A_HV.theta_zero_45
 E  A_HV.theta_zero_46
 E  A_HV.theta_zero_47
 E  A_HV.theta_zero_48
 E  A_HV.theta_zero_49
 E  A_HV.theta_zero_50
 E  A_HV.theta_zero_51
 E  A_HV.theta_zero_52
 E  A_HV.theta_zero_53
 E  A_HV.theta_zero_54
 E  A_HV.theta_zero_55
 E  A_HV.theta_zero_56
 E  A_HV.theta_zero_57
 E  A_HV.theta_zero_58
 E  A_HV.theta_zero_59
 E  A_HV.theta_zero_60
 E  A_HV.theta_zero_61
 E  A_HV.theta_zero_62
 E  A_HV.theta_zero_63
 E  A_HV.theta_zero_64
 E  A_HV.theta_zero_65
 E  A_HV.theta_zero_66
 E  A_HV.theta_zero_67
 E  A_HV.theta_zero_68
 E  A_HV.theta_zero_69
 E  A_HV.theta_zero_70
 E  A_HV.theta_zero_71
 E  A_HV.theta_zero_72
 E  A_HV.theta_zero_73
 E  A_HV.theta_zero_74
 E  A_HV.theta_zero_75
 E  A_HV.theta_zero_76
 E  A_HV.theta_zero_77
 E  A_HV.theta_zero_78
 E  A_HV.theta_zero_79
 E  A_HV.theta_zero_80
 E  A_HV.theta_zero_81
 E  A_HV.theta_zero_82
 E  A_HV.theta_zero_83
 E  A_HV.theta_zero_84
 E  A_HV.theta_zero_85
 E  A_HV.theta_zero_86
 E  A_HV.theta_zero_87
 E  A_HV.theta_zero_88
 E  A_HV.theta_zero_89
 E  A_HV.theta_zero_90
 E  A_HV.theta_zero_91
 E  A_HV.theta_zero_92
 E  A_HV.theta_zero_93
 E  A_HV.theta_zero_94
 E  A_HV.theta_zero_95
 E  A_HV.theta_zero_96
 E  A_HV.theta_zero_97
 E  A_HV.theta_zero_98
 E  A_HV.theta_zero_99
 E  A_HV.theta_zero_100
 E  A_HV.theta_zero_101
 E  A_HV.theta_zero_102
 E  A_HV.theta_zero_103
 E  A_HV.theta_zero_104
 E  A_HV.theta_zero_105
 E  A_HV.theta_zero_106
 E  A_HV.theta_zero_107
 E  A_HV.theta_zero_108
 E  A_HV.theta_zero_109
 E  A_HV.theta_zero_110
 E  A_HV.theta_zero_111
 E  A_HV.theta_zero_112
 E  A_HV.theta_zero_113
 E  A_HV.theta_zero_114
 E  A_HV.theta_zero_115
 E  A_HV.theta_zero_116
 E  A_HV.theta_zero_117
 E  A_HV.theta_zero_118
 E  A_HV.theta_zero_119
 E  A_HV.theta_zero_120
 E  A_HV.theta_zero_121
 E  A_HV.theta_zero_122
 E  A_HV.theta_zero_123
 E  A_HV.theta_zero_124
 E  A_HV.theta_zero_125
 E  A_HV.theta_zero_126
 E  A_HV.theta_zero_127
 E  A_HV.theta_zero_128
 E  A_HV.theta_zero_129
 E  A_HV.theta_zero_130
 E  A_HV.theta_zero_131
 E  A_HV.theta_zero_132
 E  A_HV.theta_zero_133
 E  A_HV.theta_zero_134
 E  A_HV.theta_zero_135
 E  A_HV.theta_zero_136
 E  A_HV.theta_zero_137
 E  A_HV.theta_zero_138
 E  A_HV.theta_zero_139
 E  A_HV.theta_zero_140
 E  A_HV.theta_zero_141
 E  A_HV.theta_zero_142
 E  A_HV.theta_zero_143
 E  A_HV.theta_zero_144
 E  A_HV.theta_zero_145
 E  A_HV.theta_zero_146
 E  A_HV.theta_zero_147
 E  A_HV.theta_zero_148
 E  A_HV.theta_zero_149
 E  A_HV.theta_zero_150
 E  A_HV.theta_zero_151
 E  A_HV.theta_zero_152
 E  A_HV.theta_zero_153
 E  A_HV.theta_zero_154
 E  A_HV.theta_zero_155
 E  A_HV.theta_zero_156
 E  A_HV.theta_zero_157
 E  A_HV.theta_zero_158
 E  A_HV.theta_zero_159
 E  A_HV.theta_zero_160
 E  A_HV.theta_zero_161
 E  A_HV.theta_zero_162
 E  A_HV.theta_zero_163
 E  A_HV.theta_zero_164
 E  A_HV.theta_zero_165
 E  A_HV.theta_zero_166
 E  A_HV.theta_zero_167
 E  A_HV.p_balance_0
 E  A_HV.p_balance_1
 E  A_HV.p_balance_2
 E  A_HV.p_balance_3
 E  A_HV.p_balance_4
 E  A_HV.p_balance_5
 E  A_HV.p_balance_6
 E  A_HV.p_balance_7
 E  A_HV.p_balance_8
 E  A_HV.p_balance_9
 E  A_HV.p_balance_10
 E  A_HV.p_balance_11
 E  A_HV.p_balance_12
 E  A_HV.p_balance_13
 E  A_HV.p_balance_14
 E  A_HV.p_balance_15
 E  A_HV.p_balance_16
 E  A_HV.p_balance_17
 E  A_HV.p_balance_18
 E  A_HV.p_balance_19
 E  A_HV.p_balance_20
 E  A_HV.p_balance_21
 E  A_HV.p_balance_22
 E  A_HV.p_balance_23
 E  A_HV.p_balance_24
 E  A_HV.p_balance_25
 E  A_HV.p_balance_26
 E  A_HV.p_balance_27
 E  A_HV.p_balance_28
 E  A_HV.p_balance_29
 E  A_HV.p_balance_30
 E  A_HV.p_balance_31
 E  A_HV.p_balance_32
 E  A_HV.p_balance_33
 E  A_HV.p_balance_34
 E  A_HV.p_balance_35
 E  A_HV.p_balance_36
 E  A_HV.p_balance_37
 E  A_HV.p_balance_38
 E  A_HV.p_balance_39
 E  A_HV.p_balance_40
 E  A_HV.p_balance_41
 E  A_HV.p_balance_42
 E  A_HV.p_balance_43
 E  A_HV.p_balance_44
 E  A_HV.p_balance_45
 E  A_HV.p_balance_46
 E  A_HV.p_balance_47
 E  A_HV.p_balance_48
 E  A_HV.p_balance_49
 E  A_HV.p_balance_50
 E  A_HV.p_balance_51
 E  A_HV.p_balance_52
 E  A_HV.p_balance_53
 E  A_HV.p_balance_54
 E  A_HV.p_balance_55
 E  A_HV.p_balance_56
 E  A_HV.p_balance_57
 E  A_HV.p_balance_58
 E  A_HV.p_balance_59
 E  A_HV.p_balance_60
 E  A_HV.p_balance_61
 E  A_HV.p_balance_62
 E  A_HV.p_balance_63
 E  A_HV.p_balance_64
 E  A_HV.p_balance_65
 E  A_HV.p_balance_66
 E  A_HV.p_balance_67
 E  A_HV.p_balance_68
 E  A_HV.p_balance_69
 E  A_HV.p_balance_70
 E  A_HV.p_balance_71
 E  A_HV.p_balance_72
 E  A_HV.p_balance_73
 E  A_HV.p_balance_74
 E  A_HV.p_balance_75
 E  A_HV.p_balance_76
 E  A_HV.p_balance_77
 E  A_HV.p_balance_78
 E  A_HV.p_balance_79
 E  A_HV.p_balance_80
 E  A_HV.p_balance_81
 E  A_HV.p_balance_82
 E  A_HV.p_balance_83
 E  A_HV.p_balance_84
 E  A_HV.p_balance_85
 E  A_HV.p_balance_86
 E  A_HV.p_balance_87
 E  A_HV.p_balance_88
 E  A_HV.p_balance_89
 E  A_HV.p_balance_90
 E  A_HV.p_balance_91
 E  A_HV.p_balance_92
 E  A_HV.p_balance_93
 E  A_HV.p_balance_94
 E  A_HV.p_balance_95
 E  A_HV.p_balance_96
 E  A_HV.p_balance_97
 E  A_HV.p_balance_98
 E  A_HV.p_balance_99
 E  A_HV.p_balance_100
 E  A_HV.p_balance_101
 E  A_HV.p_balance_102
 E  A_HV.p_balance_103
 E  A_HV.p_balance_104
 E  A_HV.p_balance_105
 E  A_HV.p_balance_106
 E  A_HV.p_balance_107
 E  A_HV.p_balance_108
 E  A_HV.p_balance_109
 E  A_HV.p_balance_110
 E  A_HV.p_balance_111
 E  A_HV.p_balance_112
 E  A_HV.p_balance_113
 E  A_HV.p_balance_114
 E  A_HV.p_balance_115
 E  A_HV.p_balance_116
 E  A_HV.p_balance_117
 E  A_HV.p_balance_118
 E  A_HV.p_balance_119
 E  A_HV.p_balance_120
 E  A_HV.p_balance_121
 E  A_HV.p_balance_122
 E  A_HV.p_balance_123
 E  A_HV.p_balance_124
 E  A_HV.p_balance_125
 E  A_HV.p_balance_126
 E  A_HV.p_balance_127
 E  A_HV.p_balance_128
 E  A_HV.p_balance_129
 E  A_HV.p_balance_130
 E  A_HV.p_balance_131
 E  A_HV.p_balance_132
 E  A_HV.p_balance_133
 E  A_HV.p_balance_134
 E  A_HV.p_balance_135
 E  A_HV.p_balance_136
 E  A_HV.p_balance_137
 E  A_HV.p_balance_138
 E  A_HV.p_balance_139
 E  A_HV.p_balance_140
 E  A_HV.p_balance_141
 E  A_HV.p_balance_142
 E  A_HV.p_balance_143
 E  A_HV.p_balance_144
 E  A_HV.p_balance_145
 E  A_HV.p_balance_146
 E  A_HV.p_balance_147
 E  A_HV.p_balance_148
 E  A_HV.p_balance_149
 E  A_HV.p_balance_150
 E  A_HV.p_balance_151
 E  A_HV.p_balance_152
 E  A_HV.p_balance_153
 E  A_HV.p_balance_154
 E  A_HV.p_balance_155
 E  A_HV.p_balance_156
 E  A_HV.p_balance_157
 E  A_HV.p_balance_158
 E  A_HV.p_balance_159
 E  A_HV.p_balance_160
 E  A_HV.p_balance_161
 E  A_HV.p_balance_162
 E  A_HV.p_balance_163
 E  A_HV.p_balance_164
 E  A_HV.p_balance_165
 E  A_HV.p_balance_166
 E  A_HV.p_balance_167
 E  A_HV.q_balance
 E  B_LV.theta_zero_0
 E  B_LV.theta_zero_1
 E  B_LV.theta_zero_2
 E  B_LV.theta_zero_3
 E  B_LV.theta_zero_4
 E  B_LV.theta_zero_5
 E  B_LV.theta_zero_6
 E  B_LV.theta_zero_7
 E  B_LV.theta_zero_8
 E  B_LV.theta_zero_9
 E  B_LV.theta_zero_10
 E  B_LV.theta_zero_11
 E  B_LV.theta_zero_12
 E  B_LV.theta_zero_13
 E  B_LV.theta_zero_14
 E  B_LV.theta_zero_15
 E  B_LV.theta_zero_16
 E  B_LV.theta_zero_17
 E  B_LV.theta_zero_18
 E  B_LV.theta_zero_19
 E  B_LV.theta_zero_20
 E  B_LV.theta_zero_21
 E  B_LV.theta_zero_22
 E  B_LV.theta_zero_23
 E  B_LV.theta_zero_24
 E  B_LV.theta_zero_25
 E  B_LV.theta_zero_26
 E  B_LV.theta_zero_27
 E  B_LV.theta_zero_28
 E  B_LV.theta_zero_29
 E  B_LV.theta_zero_30
 E  B_LV.theta_zero_31
 E  B_LV.theta_zero_32
 E  B_LV.theta_zero_33
 E  B_LV.theta_zero_34
 E  B_LV.theta_zero_35
 E  B_LV.theta_zero_36
 E  B_LV.theta_zero_37
 E  B_LV.theta_zero_38
 E  B_LV.theta_zero_39
 E  B_LV.theta_zero_40
 E  B_LV.theta_zero_41
 E  B_LV.theta_zero_42
 E  B_LV.theta_zero_43
 E  B_LV.theta_zero_44
 E  B_LV.theta_zero_45
 E  B_LV.theta_zero_46
 E  B_LV.theta_zero_47
 E  B_LV.theta_zero_48
 E  B_LV.theta_zero_49
 E  B_LV.theta_zero_50
 E  B_LV.theta_zero_51
 E  B_LV.theta_zero_52
 E  B_LV.theta_zero_53
 E  B_LV.theta_zero_54
 E  B_LV.theta_zero_55
 E  B_LV.theta_zero_56
 E  B_LV.theta_zero_57
 E  B_LV.theta_zero_58
 E  B_LV.theta_zero_59
 E  B_LV.theta_zero_60
 E  B_LV.theta_zero_61
 E  B_LV.theta_zero_62
 E  B_LV.theta_zero_63
 E  B_LV.theta_zero_64
 E  B_LV.theta_zero_65
 E  B_LV.theta_zero_66
 E  B_LV.theta_zero_67
 E  B_LV.theta_zero_68
 E  B_LV.theta_zero_69
 E  B_LV.theta_zero_70
 E  B_LV.theta_zero_71
 E  B_LV.theta_zero_72
 E  B_LV.theta_zero_73
 E  B_LV.theta_zero_74
 E  B_LV.theta_zero_75
 E  B_LV.theta_zero_76
 E  B_LV.theta_zero_77
 E  B_LV.theta_zero_78
 E  B_LV.theta_zero_79
 E  B_LV.theta_zero_80
 E  B_LV.theta_zero_81
 E  B_LV.theta_zero_82
 E  B_LV.theta_zero_83
 E  B_LV.theta_zero_84
 E  B_LV.theta_zero_85
 E  B_LV.theta_zero_86
 E  B_LV.theta_zero_87
 E  B_LV.theta_zero_88
 E  B_LV.theta_zero_89
 E  B_LV.theta_zero_90
 E  B_LV.theta_zero_91
 E  B_LV.theta_zero_92
 E  B_LV.theta_zero_93
 E  B_LV.theta_zero_94
 E  B_LV.theta_zero_95
 E  B_LV.theta_zero_96
 E  B_LV.theta_zero_97
 E  B_LV.theta_zero_98
 E  B_LV.theta_zero_99
 E  B_LV.theta_zero_100
 E  B_LV.theta_zero_101
 E  B_LV.theta_zero_102
 E  B_LV.theta_zero_103
 E  B_LV.theta_zero_104
 E  B_LV.theta_zero_105
 E  B_LV.theta_zero_106
 E  B_LV.theta_zero_107
 E  B_LV.theta_zero_108
 E  B_LV.theta_zero_109
 E  B_LV.theta_zero_110
 E  B_LV.theta_zero_111
 E  B_LV.theta_zero_112
 E  B_LV.theta_zero_113
 E  B_LV.theta_zero_114
 E  B_LV.theta_zero_115
 E  B_LV.theta_zero_116
 E  B_LV.theta_zero_117
 E  B_LV.theta_zero_118
 E  B_LV.theta_zero_119
 E  B_LV.theta_zero_120
 E  B_LV.theta_zero_121
 E  B_LV.theta_zero_122
 E  B_LV.theta_zero_123
 E  B_LV.theta_zero_124
 E  B_LV.theta_zero_125
 E  B_LV.theta_zero_126
 E  B_LV.theta_zero_127
 E  B_LV.theta_zero_128
 E  B_LV.theta_zero_129
 E  B_LV.theta_zero_130
 E  B_LV.theta_zero_131
 E  B_LV.theta_zero_132
 E  B_LV.theta_zero_133
 E  B_LV.theta_zero_134
 E  B_LV.theta_zero_135
 E  B_LV.theta_zero_136
 E  B_LV.theta_zero_137
 E  B_LV.theta_zero_138
 E  B_LV.theta_zero_139
 E  B_LV.theta_zero_140
 E  B_LV.theta_zero_141
 E  B_LV.theta_zero_142
 E  B_LV.theta_zero_143
 E  B_LV.theta_zero_144
 E  B_LV.theta_zero_145
 E  B_LV.theta_zero_146
 E  B_LV.theta_zero_147
 E  B_LV.theta_zero_148
 E  B_LV.theta_zero_149
 E  B_LV.theta_zero_150
 E  B_LV.theta_zero_151
 E  B_LV.theta_zero_152
 E  B_LV.theta_zero_153
 E  B_LV.theta_zero_154
 E  B_LV.theta_zero_155
 E  B_LV.theta_zero_156
 E  B_LV.theta_zero_157
 E  B_LV.theta_zero_158
 E  B_LV.theta_zero_159
 E  B_LV.theta_zero_160
 E  B_LV.theta_zero_161
 E  B_LV.theta_zero_162
 E  B_LV.theta_zero_163
 E  B_LV.theta_zero_164
 E  B_LV.theta_zero_165
 E  B_LV.theta_zero_166
 E  B_LV.theta_zero_167
 E  B_LV.p_balance_0
 E  B_LV.p_balance_1
 E  B_LV.p_balance_2
 E  B_LV.p_balance_3
 E  B_LV.p_balance_4
 E  B_LV.p_balance_5
 E  B_LV.p_balance_6
 E  B_LV.p_balance_7
 E  B_LV.p_balance_8
 E  B_LV.p_balance_9
 E  B_LV.p_balance_10
 E  B_LV.p_balance_11
 E  B_LV.p_balance_12
 E  B_LV.p_balance_13
 E  B_LV.p_balance_14
 E  B_LV.p_balance_15
 E  B_LV.p_balance_16
 E  B_LV.p_balance_17
 E  B_LV.p_balance_18
 E  B_LV.p_balance_19
 E  B_LV.p_balance_20
 E  B_LV.p_balance_21
 E  B_LV.p_balance_22
 E  B_LV.p_balance_23
 E  B_LV.p_balance_24
 E  B_LV.p_balance_25
 E  B_LV.p_balance_26
 E  B_LV.p_balance_27
 E  B_LV.p_balance_28
 E  B_LV.p_balance_29
 E  B_LV.p_balance_30
 E  B_LV.p_balance_31
 E  B_LV.p_balance_32
 E  B_LV.p_balance_33
 E  B_LV.p_balance_34
 E  B_LV.p_balance_35
 E  B_LV.p_balance_36
 E  B_LV.p_balance_37
 E  B_LV.p_balance_38
 E  B_LV.p_balance_39
 E  B_LV.p_balance_40
 E  B_LV.p_balance_41
 E  B_LV.p_balance_42
 E  B_LV.p_balance_43
 E  B_LV.p_balance_44
 E  B_LV.p_balance_45
 E  B_LV.p_balance_46
 E  B_LV.p_balance_47
 E  B_LV.p_balance_48
 E  B_LV.p_balance_49
 E  B_LV.p_balance_50
 E  B_LV.p_balance_51
 E  B_LV.p_balance_52
 E  B_LV.p_balance_53
 E  B_LV.p_balance_54
 E  B_LV.p_balance_55
 E  B_LV.p_balance_56
 E  B_LV.p_balance_57
 E  B_LV.p_balance_58
 E  B_LV.p_balance_59
 E  B_LV.p_balance_60
 E  B_LV.p_balance_61
 E  B_LV.p_balance_62
 E  B_LV.p_balance_63
 E  B_LV.p_balance_64
 E  B_LV.p_balance_65
 E  B_LV.p_balance_66
 E  B_LV.p_balance_67
 E  B_LV.p_balance_68
 E  B_LV.p_balance_69
 E  B_LV.p_balance_70
 E  B_LV.p_balance_71
 E  B_LV.p_balance_72
 E  B_LV.p_balance_73
 E  B_LV.p_balance_74
 E  B_LV.p_balance_75
 E  B_LV.p_balance_76
 E  B_LV.p_balance_77
 E  B_LV.p_balance_78
 E  B_LV.p_balance_79
 E  B_LV.p_balance_80
 E  B_LV.p_balance_81
 E  B_LV.p_balance_82
 E  B_LV.p_balance_83
 E  B_LV.p_balance_84
 E  B_LV.p_balance_85
 E  B_LV.p_balance_86
 E  B_LV.p_balance_87
 E  B_LV.p_balance_88
 E  B_LV.p_balance_89
 E  B_LV.p_balance_90
 E  B_LV.p_balance_91
 E  B_LV.p_balance_92
 E  B_LV.p_balance_93
 E  B_LV.p_balance_94
 E  B_LV.p_balance_95
 E  B_LV.p_balance_96
 E  B_LV.p_balance_97
 E  B_LV.p_balance_98
 E  B_LV.p_balance_99
 E  B_LV.p_balance_100
 E  B_LV.p_balance_101
 E  B_LV.p_balance_102
 E  B_LV.p_balance_103
 E  B_LV.p_balance_104
 E  B_LV.p_balance_105
 E  B_LV.p_balance_106
 E  B_LV.p_balance_107
 E  B_LV.p_balance_108
 E  B_LV.p_balance_109
 E  B_LV.p_balance_110
 E  B_LV.p_balance_111
 E  B_LV.p_balance_112
 E  B_LV.p_balance_113
 E  B_LV.p_balance_114
 E  B_LV.p_balance_115
 E  B_LV.p_balance_116
 E  B_LV.p_balance_117
 E  B_LV.p_balance_118
 E  B_LV.p_balance_119
 E  B_LV.p_balance_120
 E  B_LV.p_balance_121
 E  B_LV.p_balance_122
 E  B_LV.p_balance_123
 E  B_LV.p_balance_124
 E  B_LV.p_balance_125
 E  B_LV.p_balance_126
 E  B_LV.p_balance_127
 E  B_LV.p_balance_128
 E  B_LV.p_balance_129
 E  B_LV.p_balance_130
 E  B_LV.p_balance_131
 E  B_LV.p_balance_132
 E  B_LV.p_balance_133
 E  B_LV.p_balance_134
 E  B_LV.p_balance_135
 E  B_LV.p_balance_136
 E  B_LV.p_balance_137
 E  B_LV.p_balance_138
 E  B_LV.p_balance_139
 E  B_LV.p_balance_140
 E  B_LV.p_balance_141
 E  B_LV.p_balance_142
 E  B_LV.p_balance_143
 E  B_LV.p_balance_144
 E  B_LV.p_balance_145
 E  B_LV.p_balance_146
 E  B_LV.p_balance_147
 E  B_LV.p_balance_148
 E  B_LV.p_balance_149
 E  B_LV.p_balance_150
 E  B_LV.p_balance_151
 E  B_LV.p_balance_152
 E  B_LV.p_balance_153
 E  B_LV.p_balance_154
 E  B_LV.p_balance_155
 E  B_LV.p_balance_156
 E  B_LV.p_balance_157
 E  B_LV.p_balance_158
 E  B_LV.p_balance_159
 E  B_LV.p_balance_160
 E  B_LV.p_balance_161
 E  B_LV.p_balance_162
 E  B_LV.p_balance_163
 E  B_LV.p_balance_164
 E  B_LV.p_balance_165
 E  B_LV.p_balance_166
 E  B_LV.p_balance_167
 E  B_LV.q_balance
 E  C_LV.theta_zero_0
 E  C_LV.theta_zero_1
 E  C_LV.theta_zero_2
 E  C_LV.theta_zero_3
 E  C_LV.theta_zero_4
 E  C_LV.theta_zero_5
 E  C_LV.theta_zero_6
 E  C_LV.theta_zero_7
 E  C_LV.theta_zero_8
 E  C_LV.theta_zero_9
 E  C_LV.theta_zero_10
 E  C_LV.theta_zero_11
 E  C_LV.theta_zero_12
 E  C_LV.theta_zero_13
 E  C_LV.theta_zero_14
 E  C_LV.theta_zero_15
 E  C_LV.theta_zero_16
 E  C_LV.theta_zero_17
 E  C_LV.theta_zero_18
 E  C_LV.theta_zero_19
 E  C_LV.theta_zero_20
 E  C_LV.theta_zero_21
 E  C_LV.theta_zero_22
 E  C_LV.theta_zero_23
 E  C_LV.theta_zero_24
 E  C_LV.theta_zero_25
 E  C_LV.theta_zero_26
 E  C_LV.theta_zero_27
 E  C_LV.theta_zero_28
 E  C_LV.theta_zero_29
 E  C_LV.theta_zero_30
 E  C_LV.theta_zero_31
 E  C_LV.theta_zero_32
 E  C_LV.theta_zero_33
 E  C_LV.theta_zero_34
 E  C_LV.theta_zero_35
 E  C_LV.theta_zero_36
 E  C_LV.theta_zero_37
 E  C_LV.theta_zero_38
 E  C_LV.theta_zero_39
 E  C_LV.theta_zero_40
 E  C_LV.theta_zero_41
 E  C_LV.theta_zero_42
 E  C_LV.theta_zero_43
 E  C_LV.theta_zero_44
 E  C_LV.theta_zero_45
 E  C_LV.theta_zero_46
 E  C_LV.theta_zero_47
 E  C_LV.theta_zero_48
 E  C_LV.theta_zero_49
 E  C_LV.theta_zero_50
 E  C_LV.theta_zero_51
 E  C_LV.theta_zero_52
 E  C_LV.theta_zero_53
 E  C_LV.theta_zero_54
 E  C_LV.theta_zero_55
 E  C_LV.theta_zero_56
 E  C_LV.theta_zero_57
 E  C_LV.theta_zero_58
 E  C_LV.theta_zero_59
 E  C_LV.theta_zero_60
 E  C_LV.theta_zero_61
 E  C_LV.theta_zero_62
 E  C_LV.theta_zero_63
 E  C_LV.theta_zero_64
 E  C_LV.theta_zero_65
 E  C_LV.theta_zero_66
 E  C_LV.theta_zero_67
 E  C_LV.theta_zero_68
 E  C_LV.theta_zero_69
 E  C_LV.theta_zero_70
 E  C_LV.theta_zero_71
 E  C_LV.theta_zero_72
 E  C_LV.theta_zero_73
 E  C_LV.theta_zero_74
 E  C_LV.theta_zero_75
 E  C_LV.theta_zero_76
 E  C_LV.theta_zero_77
 E  C_LV.theta_zero_78
 E  C_LV.theta_zero_79
 E  C_LV.theta_zero_80
 E  C_LV.theta_zero_81
 E  C_LV.theta_zero_82
 E  C_LV.theta_zero_83
 E  C_LV.theta_zero_84
 E  C_LV.theta_zero_85
 E  C_LV.theta_zero_86
 E  C_LV.theta_zero_87
 E  C_LV.theta_zero_88
 E  C_LV.theta_zero_89
 E  C_LV.theta_zero_90
 E  C_LV.theta_zero_91
 E  C_LV.theta_zero_92
 E  C_LV.theta_zero_93
 E  C_LV.theta_zero_94
 E  C_LV.theta_zero_95
 E  C_LV.theta_zero_96
 E  C_LV.theta_zero_97
 E  C_LV.theta_zero_98
 E  C_LV.theta_zero_99
 E  C_LV.theta_zero_100
 E  C_LV.theta_zero_101
 E  C_LV.theta_zero_102
 E  C_LV.theta_zero_103
 E  C_LV.theta_zero_104
 E  C_LV.theta_zero_105
 E  C_LV.theta_zero_106
 E  C_LV.theta_zero_107
 E  C_LV.theta_zero_108
 E  C_LV.theta_zero_109
 E  C_LV.theta_zero_110
 E  C_LV.theta_zero_111
 E  C_LV.theta_zero_112
 E  C_LV.theta_zero_113
 E  C_LV.theta_zero_114
 E  C_LV.theta_zero_115
 E  C_LV.theta_zero_116
 E  C_LV.theta_zero_117
 E  C_LV.theta_zero_118
 E  C_LV.theta_zero_119
 E  C_LV.theta_zero_120
 E  C_LV.theta_zero_121
 E  C_LV.theta_zero_122
 E  C_LV.theta_zero_123
 E  C_LV.theta_zero_124
 E  C_LV.theta_zero_125
 E  C_LV.theta_zero_126
 E  C_LV.theta_zero_127
 E  C_LV.theta_zero_128
 E  C_LV.theta_zero_129
 E  C_LV.theta_zero_130
 E  C_LV.theta_zero_131
 E  C_LV.theta_zero_132
 E  C_LV.theta_zero_133
 E  C_LV.theta_zero_134
 E  C_LV.theta_zero_135
 E  C_LV.theta_zero_136
 E  C_LV.theta_zero_137
 E  C_LV.theta_zero_138
 E  C_LV.theta_zero_139
 E  C_LV.theta_zero_140
 E  C_LV.theta_zero_141
 E  C_LV.theta_zero_142
 E  C_LV.theta_zero_143
 E  C_LV.theta_zero_144
 E  C_LV.theta_zero_145
 E  C_LV.theta_zero_146
 E  C_LV.theta_zero_147
 E  C_LV.theta_zero_148
 E  C_LV.theta_zero_149
 E  C_LV.theta_zero_150
 E  C_LV.theta_zero_151
 E  C_LV.theta_zero_152
 E  C_LV.theta_zero_153
 E  C_LV.theta_zero_154
 E  C_LV.theta_zero_155
 E  C_LV.theta_zero_156
 E  C_LV.theta_zero_157
 E  C_LV.theta_zero_158
 E  C_LV.theta_zero_159
 E  C_LV.theta_zero_160
 E  C_LV.theta_zero_161
 E  C_LV.theta_zero_162
 E  C_LV.theta_zero_163
 E  C_LV.theta_zero_164
 E  C_LV.theta_zero_165
 E  C_LV.theta_zero_166
 E  C_LV.theta_zero_167
 E  C_LV.p_balance_0
 E  C_LV.p_balance_1
 E  C_LV.p_balance_2
 E  C_LV.p_balance_3
 E  C_LV.p_balance_4
 E  C_LV.p_balance_5
 E  C_LV.p_balance_6
 E  C_LV.p_balance_7
 E  C_LV.p_balance_8
 E  C_LV.p_balance_9
 E  C_LV.p_balance_10
 E  C_LV.p_balance_11
 E  C_LV.p_balance_12
 E  C_LV.p_balance_13
 E  C_LV.p_balance_14
 E  C_LV.p_balance_15
 E  C_LV.p_balance_16
 E  C_LV.p_balance_17
 E  C_LV.p_balance_18
 E  C_LV.p_balance_19
 E  C_LV.p_balance_20
 E  C_LV.p_balance_21
 E  C_LV.p_balance_22
 E  C_LV.p_balance_23
 E  C_LV.p_balance_24
 E  C_LV.p_balance_25
 E  C_LV.p_balance_26
 E  C_LV.p_balance_27
 E  C_LV.p_balance_28
 E  C_LV.p_balance_29
 E  C_LV.p_balance_30
 E  C_LV.p_balance_31
 E  C_LV.p_balance_32
 E  C_LV.p_balance_33
 E  C_LV.p_balance_34
 E  C_LV.p_balance_35
 E  C_LV.p_balance_36
 E  C_LV.p_balance_37
 E  C_LV.p_balance_38
 E  C_LV.p_balance_39
 E  C_LV.p_balance_40
 E  C_LV.p_balance_41
 E  C_LV.p_balance_42
 E  C_LV.p_balance_43
 E  C_LV.p_balance_44
 E  C_LV.p_balance_45
 E  C_LV.p_balance_46
 E  C_LV.p_balance_47
 E  C_LV.p_balance_48
 E  C_LV.p_balance_49
 E  C_LV.p_balance_50
 E  C_LV.p_balance_51
 E  C_LV.p_balance_52
 E  C_LV.p_balance_53
 E  C_LV.p_balance_54
 E  C_LV.p_balance_55
 E  C_LV.p_balance_56
 E  C_LV.p_balance_57
 E  C_LV.p_balance_58
 E  C_LV.p_balance_59
 E  C_LV.p_balance_60
 E  C_LV.p_balance_61
 E  C_LV.p_balance_62
 E  C_LV.p_balance_63
 E  C_LV.p_balance_64
 E  C_LV.p_balance_65
 E  C_LV.p_balance_66
 E  C_LV.p_balance_67
 E  C_LV.p_balance_68
 E  C_LV.p_balance_69
 E  C_LV.p_balance_70
 E  C_LV.p_balance_71
 E  C_LV.p_balance_72
 E  C_LV.p_balance_73
 E  C_LV.p_balance_74
 E  C_LV.p_balance_75
 E  C_LV.p_balance_76
 E  C_LV.p_balance_77
 E  C_LV.p_balance_78
 E  C_LV.p_balance_79
 E  C_LV.p_balance_80
 E  C_LV.p_balance_81
 E  C_LV.p_balance_82
 E  C_LV.p_balance_83
 E  C_LV.p_balance_84
 E  C_LV.p_balance_85
 E  C_LV.p_balance_86
 E  C_LV.p_balance_87
 E  C_LV.p_balance_88
 E  C_LV.p_balance_89
 E  C_LV.p_balance_90
 E  C_LV.p_balance_91
 E  C_LV.p_balance_92
 E  C_LV.p_balance_93
 E  C_LV.p_balance_94
 E  C_LV.p_balance_95
 E  C_LV.p_balance_96
 E  C_LV.p_balance_97
 E  C_LV.p_balance_98
 E  C_LV.p_balance_99
 E  C_LV.p_balance_100
 E  C_LV.p_balance_101
 E  C_LV.p_balance_102
 E  C_LV.p_balance_103
 E  C_LV.p_balance_104
 E  C_LV.p_balance_105
 E  C_LV.p_balance_106
 E  C_LV.p_balance_107
 E  C_LV.p_balance_108
 E  C_LV.p_balance_109
 E  C_LV.p_balance_110
 E  C_LV.p_balance_111
 E  C_LV.p_balance_112
 E  C_LV.p_balance_113
 E  C_LV.p_balance_114
 E  C_LV.p_balance_115
 E  C_LV.p_balance_116
 E  C_LV.p_balance_117
 E  C_LV.p_balance_118
 E  C_LV.p_balance_119
 E  C_LV.p_balance_120
 E  C_LV.p_balance_121
 E  C_LV.p_balance_122
 E  C_LV.p_balance_123
 E  C_LV.p_balance_124
 E  C_LV.p_balance_125
 E  C_LV.p_balance_126
 E  C_LV.p_balance_127
 E  C_LV.p_balance_128
 E  C_LV.p_balance_129
 E  C_LV.p_balance_130
 E  C_LV.p_balance_131
 E  C_LV.p_balance_132
 E  C_LV.p_balance_133
 E  C_LV.p_balance_134
 E  C_LV.p_balance_135
 E  C_LV.p_balance_136
 E  C_LV.p_balance_137
 E  C_LV.p_balance_138
 E  C_LV.p_balance_139
 E  C_LV.p_balance_140
 E  C_LV.p_balance_141
 E  C_LV.p_balance_142
 E  C_LV.p_balance_143
 E  C_LV.p_balance_144
 E  C_LV.p_balance_145
 E  C_LV.p_balance_146
 E  C_LV.p_balance_147
 E  C_LV.p_balance_148
 E  C_LV.p_balance_149
 E  C_LV.p_balance_150
 E  C_LV.p_balance_151
 E  C_LV.p_balance_152
 E  C_LV.p_balance_153
 E  C_LV.p_balance_154
 E  C_LV.p_balance_155
 E  C_LV.p_balance_156
 E  C_LV.p_balance_157
 E  C_LV.p_balance_158
 E  C_LV.p_balance_159
 E  C_LV.p_balance_160
 E  C_LV.p_balance_161
 E  C_LV.p_balance_162
 E  C_LV.p_balance_163
 E  C_LV.p_balance_164
 E  C_LV.p_balance_165
 E  C_LV.p_balance_166
 E  C_LV.p_balance_167
 E  C_LV.q_balance
 E  REF_A.theta_reference
 G  G_A.min_dispatch_0
 G  G_A.min_dispatch_1
 G  G_A.min_dispatch_2
 G  G_A.min_dispatch_3
 G  G_A.min_dispatch_4
 G  G_A.min_dispatch_5
 G  G_A.min_dispatch_6
 G  G_A.min_dispatch_7
 G  G_A.min_dispatch_8
 G  G_A.min_dispatch_9
 G  G_A.min_dispatch_10
 G  G_A.min_dispatch_11
 G  G_A.min_dispatch_12
 G  G_A.min_dispatch_13
 G  G_A.min_dispatch_14
 G  G_A.min_dispatch_15
 G  G_A.min_dispatch_16
 G  G_A.min_dispatch_17
 G  G_A.min_dispatch_18
 G  G_A.min_dispatch_19
 G  G_A.min_dispatch_20
 G  G_A.min_dispatch_21
 G  G_A.min_dispatch_22
 G  G_A.min_dispatch_23
 G  G_A.min_dispatch_24
 G  G_A.min_dispatch_25
 G  G_A.min_dispatch_26
 G  G_A.min_dispatch_27
 G  G_A.min_dispatch_28
 G  G_A.min_dispatch_29
 G  G_A.min_dispatch_30
 G  G_A.min_dispatch_31
 G  G_A.min_dispatch_32
 G  G_A.min_dispatch_33
 G  G_A.min_dispatch_34
 G  G_A.min_dispatch_35
 G  G_A.min_dispatch_36
 G  G_A.min_dispatch_37
 G  G_A.min_dispatch_38
 G  G_A.min_dispatch_39
 G  G_A.min_dispatch_40
 G  G_A.min_dispatch_41
 G  G_A.min_dispatch_42
 G  G_A.min_dispatch_43
 G  G_A.min_dispatch_44
 G  G_A.min_dispatch_45
 G  G_A.min_dispatch_46
 G  G_A.min_dispatch_47
 G  G_A.min_dispatch_48
 G  G_A.min_dispatch_49
 G  G_A.min_dispatch_50
 G  G_A.min_dispatch_51
 G  G_A.min_dispatch_52
 G  G_A.min_dispatch_53
 G  G_A.min_dispatch_54
 G  G_A.min_dispatch_55
 G  G_A.min_dispatch_56
 G  G_A.min_dispatch_57
 G  G_A.min_dispatch_58
 G  G_A.min_dispatch_59
 G  G_A.min_dispatch_60
 G  G_A.min_dispatch_61
 G  G_A.min_dispatch_62
 G  G_A.min_dispatch_63
 G  G_A.min_dispatch_64
 G  G_A.min_dispatch_65
 G  G_A.min_dispatch_66
 G  G_A.min_dispatch_67
 G  G_A.min_dispatch_68
 G  G_A.min_dispatch_69
 G  G_A.min_dispatch_70
 G  G_A.min_dispatch_71
 G  G_A.min_dispatch_72
 G  G_A.min_dispatch_73
 G  G_A.min_dispatch_74
 G  G_A.min_dispatch_75
 G  G_A.min_dispatch_76
 G  G_A.min_dispatch_77
 G  G_A.min_dispatch_78
 G  G_A.min_dispatch_79
 G  G_A.min_dispatch_80
 G  G_A.min_dispatch_81
 G  G_A.min_dispatch_82
 G  G_A.min_dispatch_83
 G  G_A.min_dispatch_84
 G  G_A.min_dispatch_85
 G  G_A.min_dispatch_86
 G  G_A.min_dispatch_87
 G  G_A.min_dispatch_88
 G  G_A.min_dispatch_89
 G  G_A.min_dispatch_90
 G  G_A.min_dispatch_91
 G  G_A.min_dispatch_92
 G  G_A.min_dispatch_93
 G  G_A.min_dispatch_94
 G  G_A.min_dispatch_95
 G  G_A.min_dispatch_96
 G  G_A.min_dispatch_97
 G  G_A.min_dispatch_98
 G  G_A.min_dispatch_99
 G  G_A.min_dispatch_100
 G  G_A.min_dispatch_101
 G  G_A.min_dispatch_102
 G  G_A.min_dispatch_103
 G  G_A.min_dispatch_104
 G  G_A.min_dispatch_105
 G  G_A.min_dispatch_106
 G  G_A.min_dispatch_107
 G  G_A.min_dispatch_108
 G  G_A.min_dispatch_109
 G  G_A.min_dispatch_110
 G  G_A.min_dispatch_111
 G  G_A.min_dispatch_112
 G  G_A.min_dispatch_113
 G  G_A.min_dispatch_114
 G  G_A.min_dispatch_115
 G  G_A.min_dispatch_116
 G  G_A.min_dispatch_117
 G  G_A.min_dispatch_118
 G  G_A.min_dispatch_119
 G  G_A.min_dispatch_120
 G  G_A.min_dispatch_121
 G  G_A.min_dispatch_122
 G  G_A.min_dispatch_123
 G  G_A.min_dispatch_124
 G  G_A.min_dispatch_125
 G  G_A.min_dispatch_126
 G  G_A.min_dispatch_127
 G  G_A.min_dispatch_128
 G  G_A.min_dispatch_129
 G  G_A.min_dispatch_130
 G  G_A.min_dispatch_131
 G  G_A.min_dispatch_132
 G  G_A.min_dispatch_133
 G  G_A.min_dispatch_134
 G  G_A.min_dispatch_135
 G  G_A.min_dispatch_136
 G  G_A.min_dispatch_137
 G  G_A.min_dispatch_138
 G  G_A.min_dispatch_139
 G  G_A.min_dispatch_140
 G  G_A.min_dispatch_141
 G  G_A.min_dispatch_142
 G  G_A.min_dispatch_143
 G  G_A.min_dispatch_144
 G  G_A.min_dispatch_145
 G  G_A.min_dispatch_146
 G  G_A.min_dispatch_147
 G  G_A.min_dispatch_148
 G  G_A.min_dispatch_149
 G  G_A.min_dispatch_150
 G  G_A.min_dispatch_151
 G  G_A.min_dispatch_152
 G  G_A.min_dispatch_153
 G  G_A.min_dispatch_154
 G  G_A.min_dispatch_155
 G  G_A.min_dispatch_156
 G  G_A.min_dispatch_157
 G  G_A.min_dispatch_158
 G  G_A.min_dispatch_159
 G  G_A.min_dispatch_160
 G  G_A.min_dispatch_161
 G  G_A.min_dispatch_162
 G  G_A.min_dispatch_163
 G  G_A.min_dispatch_164
 G  G_A.min_dispatch_165
 G  G_A.min_dispatch_166
 G  G_A.min_dispatch_167
 L  G_A.max_dispatch_0
 L  G_A.max_dispatch_1
 L  G_A.max_dispatch_2
 L  G_A.max_dispatch_3
 L  G_A.max_dispatch_4
 L  G_A.max_dispatch_5
 L  G_A.max_dispatch_6
 L  G_A.max_dispatch_7
 L  G_A.max_dispatch_8
 L  G_A.max_dispatch_9
 L  G_A.max_dispatch_10
 L  G_A.max_dispatch_11
 L  G_A.max_dispatch_12
 L  G_A.max_dispatch_13
 L  G_A.max_dispatch_14
 L  G_A.max_dispatch_15
 L  G_A.max_dispatch_16
 L  G_A.max_dispatch_17
 L  G_A.max_dispatch_18
 L  G_A.max_dispatch_19
 L  G_A.max_dispatch_20
 L  G_A.max_dispatch_21
 L  G_A.max_dispatch_22
 L  G_A.max_dispatch_23
 L  G_A.max_dispatch_24
 L  G_A.max_dispatch_25
 L  G_A.max_dispatch_26
 L  G_A.max_dispatch_27
 L  G_A.max_dispatch_28
 L  G_A.max_dispatch_29
 L  G_A.max_dispatch_30
 L  G_A.max_dispatch_31
 L  G_A.max_dispatch_32
 L  G_A.max_dispatch_33
 L  G_A.max_dispatch_34
 L  G_A.max_dispatch_35
 L  G_A.max_dispatch_36
 L  G_A.max_dispatch_37
 L  G_A.max_dispatch_38
 L  G_A.max_dispatch_39
 L  G_A.max_dispatch_40
 L  G_A.max_dispatch_41
 L  G_A.max_dispatch_42
 L  G_A.max_dispatch_43
 L  G_A.max_dispatch_44
 L  G_A.max_dispatch_45
 L  G_A.max_dispatch_46
 L  G_A.max_dispatch_47
 L  G_A.max_dispatch_48
 L  G_A.max_dispatch_49
 L  G_A.max_dispatch_50
 L  G_A.max_dispatch_51
 L  G_A.max_dispatch_52
 L  G_A.max_dispatch_53
 L  G_A.max_dispatch_54
 L  G_A.max_dispatch_55
 L  G_A.max_dispatch_56
 L  G_A.max_dispatch_57
 L  G_A.max_dispatch_58
 L  G_A.max_dispatch_59
 L  G_A.max_dispatch_60
 L  G_A.max_dispatch_61
 L  G_A.max_dispatch_62
 L  G_A.max_dispatch_63
 L  G_A.max_dispatch_64
 L  G_A.max_dispatch_65
 L  G_A.max_dispatch_66
 L  G_A.max_dispatch_67
 L  G_A.max_dispatch_68
 L  G_A.max_dispatch_69
 L  G_A.max_dispatch_70
 L  G_A.max_dispatch_71
 L  G_A.max_dispatch_72
 L  G_A.max_dispatch_73
 L  G_A.max_dispatch_74
 L  G_A.max_dispatch_75
 L  G_A.max_dispatch_76
 L  G_A.max_dispatch_77
 L  G_A.max_dispatch_78
 L  G_A.max_dispatch_79
 L  G_A.max_dispatch_80
 L  G_A.max_dispatch_81
 L  G_A.max_dispatch_82
 L  G_A.max_dispatch_83
 L  G_A.max_dispatch_84
 L  G_A.max_dispatch_85
 L  G_A.max_dispatch_86
 L  G_A.max_dispatch_87
 L  G_A.max_dispatch_88
 L  G_A.max_dispatch_89
 L  G_A.max_dispatch_90
 L  G_A.max_dispatch_91
 L  G_A.max_dispatch_92
 L  G_A.max_dispatch_93
 L  G_A.max_dispatch_94
 L  G_A.max_dispatch_95
 L  G_A.max_dispatch_96
 L  G_A.max_dispatch_97
 L  G_A.max_dispatch_98
 L  G_A.max_dispatch_99
 L  G_A.max_dispatch_100
 L  G_A.max_dispatch_101
 L  G_A.max_dispatch_102
 L  G_A.max_dispatch_103
 L  G_A.max_dispatch_104
 L  G_A.max_dispatch_105
 L  G_A.max_dispatch_106
 L  G_A.max_dispatch_107
 L  G_A.max_dispatch_108
 L  G_A.max_dispatch_109
 L  G_A.max_dispatch_110
 L  G_A.max_dispatch_111
 L  G_A.max_dispatch_112
 L  G_A.max_dispatch_113
 L  G_A.max_dispatch_114
 L  G_A.max_dispatch_115
 L  G_A.max_dispatch_116
 L  G_A.max_dispatch_117
 L  G_A.max_dispatch_118
 L  G_A.max_dispatch_119
 L  G_A.max_dispatch_120
 L  G_A.max_dispatch_121
 L  G_A.max_dispatch_122
 L  G_A.max_dispatch_123
 L  G_A.max_dispatch_124
 L  G_A.max_dispatch_125
 L  G_A.max_dispatch_126
 L  G_A.max_dispatch_127
 L  G_A.max_dispatch_128
 L  G_A.max_dispatch_129
 L  G_A.max_dispatch_130
 L  G_A.max_dispatch_131
 L  G_A.max_dispatch_132
 L  G_A.max_dispatch_133
 L  G_A.max_dispatch_134
 L  G_A.max_dispatch_135
 L  G_A.max_dispatch_136
 L  G_A.max_dispatch_137
 L  G_A.max_dispatch_138
 L  G_A.max_dispatch_139
 L  G_A.max_dispatch_140
 L  G_A.max_dispatch_141
 L  G_A.max_dispatch_142
 L  G_A.max_dispatch_143
 L  G_A.max_dispatch_144
 L  G_A.max_dispatch_145
 L  G_A.max_dispatch_146
 L  G_A.max_dispatch_147
 L  G_A.max_dispatch_148
 L  G_A.max_dispatch_149
 L  G_A.max_dispatch_150
 L  G_A.max_dispatch_151
 L  G_A.max_dispatch_152
 L  G_A.max_dispatch_153
 L  G_A.max_dispatch_154
 L  G_A.max_dispatch_155
 L  G_A.max_dispatch_156
 L  G_A.max_dispatch_157
 L  G_A.max_dispatch_158
 L  G_A.max_dispatch_159
 L  G_A.max_dispatch_160
 L  G_A.max_dispatch_161
 L  G_A.max_dispatch_162
 L  G_A.max_dispatch_163
 L  G_A.max_dispatch_164
 L  G_A.max_dispatch_165
 L  G_A.max_dispatch_166
 L  G_A.max_dispatch_167
 G  G_A.min_production
 L  G_A.max_production
 G  G_C.min_dispatch_0
 G  G_C.min_dispatch_1
 G  G_C.min_dispatch_2
 G  G_C.min_dispatch_3
 G  G_C.min_dispatch_4
 G  G_C.min_dispatch_5
 G  G_C.min_dispatch_6
 G  G_C.min_dispatch_7
 G  G_C.min_dispatch_8
 G  G_C.min_dispatch_9
 G  G_C.min_dispatch_10
 G  G_C.min_dispatch_11
 G  G_C.min_dispatch_12
 G  G_C.min_dispatch_13
 G  G_C.min_dispatch_14
 G  G_C.min_dispatch_15
 G  G_C.min_dispatch_16
 G  G_C.min_dispatch_17
 G  G_C.min_dispatch_18
 G  G_C.min_dispatch_19
 G  G_C.min_dispatch_20
 G  G_C.min_dispatch_21
 G  G_C.min_dispatch_22
 G  G_C.min_dispatch_23
 G  G_C.min_dispatch_24
 G  G_C.min_dispatch_25
 G  G_C.min_dispatch_26
 G  G_C.min_dispatch_27
 G  G_C.min_dispatch_28
 G  G_C.min_dispatch_29
 G  G_C.min_dispatch_30
 G  G_C.min_dispatch_31
 G  G_C.min_dispatch_32
 G  G_C.min_dispatch_33
 G  G_C.min_dispatch_34
 G  G_C.min_dispatch_35
 G  G_C.min_dispatch_36
 G  G_C.min_dispatch_37
 G  G_C.min_dispatch_38
 G  G_C.min_dispatch_39
 G  G_C.min_dispatch_40
 G  G_C.min_dispatch_41
 G  G_C.min_dispatch_42
 G  G_C.min_dispatch_43
 G  G_C.min_dispatch_44
 G  G_C.min_dispatch_45
 G  G_C.min_dispatch_46
 G  G_C.min_dispatch_47
 G  G_C.min_dispatch_48
 G  G_C.min_dispatch_49
 G  G_C.min_dispatch_50
 G  G_C.min_dispatch_51
 G  G_C.min_dispatch_52
 G  G_C.min_dispatch_53
 G  G_C.min_dispatch_54
 G  G_C.min_dispatch_55
 G  G_C.min_dispatch_56
 G  G_C.min_dispatch_57
 G  G_C.min_dispatch_58
 G  G_C.min_dispatch_59
 G  G_C.min_dispatch_60
 G  G_C.min_dispatch_61
 G  G_C.min_dispatch_62
 G  G_C.min_dispatch_63
 G  G_C.min_dispatch_64
 G  G_C.min_dispatch_65
 G  G_C.min_dispatch_66
 G  G_C.min_dispatch_67
 G  G_C.min_dispatch_68
 G  G_C.min_dispatch_69
 G  G_C.min_dispatch_70
 G  G_C.min_dispatch_71
 G  G_C.min_dispatch_72
 G  G_C.min_dispatch_73
 G  G_C.min_dispatch_74
 G  G_C.min_dispatch_75
 G  G_C.min_dispatch_76
 G  G_C.min_dispatch_77
 G  G_C.min_dispatch_78
 G  G_C.min_dispatch_79
 G  G_C.min_dispatch_80
 G  G_C.min_dispatch_81
 G  G_C.min_dispatch_82
 G  G_C.min_dispatch_83
 G  G_C.min_dispatch_84
 G  G_C.min_dispatch_85
 G  G_C.min_dispatch_86
 G  G_C.min_dispatch_87
 G  G_C.min_dispatch_88
 G  G_C.min_dispatch_89
 G  G_C.min_dispatch_90
 G  G_C.min_dispatch_91
 G  G_C.min_dispatch_92
 G  G_C.min_dispatch_93
 G  G_C.min_dispatch_94
 G  G_C.min_dispatch_95
 G  G_C.min_dispatch_96
 G  G_C.min_dispatch_97
 G  G_C.min_dispatch_98
 G  G_C.min_dispatch_99
 G  G_C.min_dispatch_100
 G  G_C.min_dispatch_101
 G  G_C.min_dispatch_102
 G  G_C.min_dispatch_103
 G  G_C.min_dispatch_104
 G  G_C.min_dispatch_105
 G  G_C.min_dispatch_106
 G  G_C.min_dispatch_107
 G  G_C.min_dispatch_108
 G  G_C.min_dispatch_109
 G  G_C.min_dispatch_110
 G  G_C.min_dispatch_111
 G  G_C.min_dispatch_112
 G  G_C.min_dispatch_113
 G  G_C.min_dispatch_114
 G  G_C.min_dispatch_115
 G  G_C.min_dispatch_116
 G  G_C.min_dispatch_117
 G  G_C.min_dispatch_118
 G  G_C.min_dispatch_119
 G  G_C.min_dispatch_120
 G  G_C.min_dispatch_121
 G  G_C.min_dispatch_122
 G  G_C.min_dispatch_123
 G  G_C.min_dispatch_124
 G  G_C.min_dispatch_125
 G  G_C.min_dispatch_126
 G  G_C.min_dispatch_127
 G  G_C.min_dispatch_128
 G  G_C.min_dispatch_129
 G  G_C.min_dispatch_130
 G  G_C.min_dispatch_131
 G  G_C.min_dispatch_132
 G  G_C.min_dispatch_133
 G  G_C.min_dispatch_134
 G  G_C.min_dispatch_135
 G  G_C.min_dispatch_136
 G  G_C.min_dispatch_137
 G  G_C.min_dispatch_138
 G  G_C.min_dispatch_139
 G  G_C.min_dispatch_140
 G  G_C.min_dispatch_141
 G  G_C.min_dispatch_142
 G  G_C.min_dispatch_143
 G  G_C.min_dispatch_144
 G  G_C.min_dispatch_145
 G  G_C.min_dispatch_146
 G  G_C.min_dispatch_147
 G  G_C.min_dispatch_148
 G  G_C.min_dispatch_149
 G  G_C.min_dispatch_150
 G  G_C.min_dispatch_151
 G  G_C.min_dispatch_152
 G  G_C.min_dispatch_153
 G  G_C.min_dispatch_154
 G  G_C.min_dispatch_155
 G  G_C.min_dispatch_156
 G  G_C.min_dispatch_157
 G  G_C.min_dispatch_158
 G  G_C.min_dispatch_159
 G  G_C.min_dispatch_160
 G  G_C.min_dispatch_161
 G  G_C.min_dispatch_162
 G  G_C.min_dispatch_163
 G  G_C.min_dispatch_164
 G  G_C.min_dispatch_165
 G  G_C.min_dispatch_166
 G  G_C.min_dispatch_167
 L  G_C.max_dispatch_0
 L  G_C.max_dispatch_1
 L  G_C.max_dispatch_2
 L  G_C.max_dispatch_3
 L  G_C.max_dispatch_4
 L  G_C.max_dispatch_5
 L  G_C.max_dispatch_6
 L  G_C.max_dispatch_7
 L  G_C.max_dispatch_8
 L  G_C.max_dispatch_9
 L  G_C.max_dispatch_10
 L  G_C.max_dispatch_11
 L  G_C.max_dispatch_12
 L  G_C.max_dispatch_13
 L  G_C.max_dispatch_14
 L  G_C.max_dispatch_15
 L  G_C.max_dispatch_16
 L  G_C.max_dispatch_17
 L  G_C.max_dispatch_18
 L  G_C.max_dispatch_19
 L  G_C.max_dispatch_20
 L  G_C.max_dispatch_21
 L  G_C.max_dispatch_22
 L  G_C.max_dispatch_23
 L  G_C.max_dispatch_24
 L  G_C.max_dispatch_25
 L  G_C.max_dispatch_26
 L  G_C.max_dispatch_27
 L  G_C.max_dispatch_28
 L  G_C.max_dispatch_29
 L  G_C.max_dispatch_30
 L  G_C.max_dispatch_31
 L  G_C.max_dispatch_32
 L  G_C.max_dispatch_33
 L  G_C.max_dispatch_34
 L  G_C.max_dispatch_35
 L  G_C.max_dispatch_36
 L  G_C.max_dispatch_37
 L  G_C.max_dispatch_38
 L  G_C.max_dispatch_39
 L  G_C.max_dispatch_40
 L  G_C.max_dispatch_41
 L  G_C.max_dispatch_42
 L  G_C.max_dispatch_43
 L  G_C.max_dispatch_44
 L  G_C.max_dispatch_45
 L  G_C.max_dispatch_46
 L  G_C.max_dispatch_47
 L  G_C.max_dispatch_48
 L  G_C.max_dispatch_49
 L  G_C.max_dispatch_50
 L  G_C.max_dispatch_51
 L  G_C.max_dispatch_52
 L  G_C.max_dispatch_53
 L  G_C.max_dispatch_54
 L  G_C.max_dispatch_55
 L  G_C.max_dispatch_56
 L  G_C.max_dispatch_57
 L  G_C.max_dispatch_58
 L  G_C.max_dispatch_59
 L  G_C.max_dispatch_60
 L  G_C.max_dispatch_61
 L  G_C.max_dispatch_62
 L  G_C.max_dispatch_63
 L  G_C.max_dispatch_64
 L  G_C.max_dispatch_65
 L  G_C.max_dispatch_66
 L  G_C.max_dispatch_67
 L  G_C.max_dispatch_68
 L  G_C.max_dispatch_69
 L  G_C.max_dispatch_70
 L  G_C.max_dispatch_71
 L  G_C.max_dispatch_72
 L  G_C.max_dispatch_73
 L  G_C.max_dispatch_74
 L  G_C.max_dispatch_75
 L  G_C.max_dispatch_76
 L  G_C.max_dispatch_77
 L  G_C.max_dispatch_78
 L  G_C.max_dispatch_79
 L  G_C.max_dispatch_80
 L  G_C.max_dispatch_81
 L  G_C.max_dispatch_82
 L  G_C.max_dispatch_83
 L  G_C.max_dispatch_84
 L  G_C.max_dispatch_85
 L  G_C.max_dispatch_86
 L  G_C.max_dispatch_87
 L  G_C.max_dispatch_88
 L  G_C.max_dispatch_89
 L  G_C.max_dispatch_90
 L  G_C.max_dispatch_91
 L  G_C.max_dispatch_92
 L  G_C.max_dispatch_93
 L  G_C.max_dispatch_94
 L  G_C.max_dispatch_95
 L  G_C.max_dispatch_96
 L  G_C.max_dispatch_97
 L  G_C.max_dispatch_98
 L  G_C.max_dispatch_99
 L  G_C.max_dispatch_100
 L  G_C.max_dispatch_101
 L  G_C.max_dispatch_102
 L  G_C.max_dispatch_103
 L  G_C.max_dispatch_104
 L  G_C.max_dispatch_105
 L  G_C.max_dispatch_106
 L  G_C.max_dispatch_107
 L  G_C.max_dispatch_108
 L  G_C.max_dispatch_109
 L  G_C.max_dispatch_110
 L  G_C.max_dispatch_111
 L  G_C.max_dispatch_112
 L  G_C.max_dispatch_113
 L  G_C.max_dispatch_114
 L  G_C.max_dispatch_115
 L  G_C.max_dispatch_116
 L  G_C.max_dispatch_117
 L  G_C.max_dispatch_118
 L  G_C.max_dispatch_119
 L  G_C.max_dispatch_120
 L  G_C.max_dispatch_121
 L  G_C.max_dispatch_122
 L  G_C.max_dispatch_123
 L  G_C.max_dispatch_124
 L  G_C.max_dispatch_125
 L  G_C.max_dispatch_126
 L  G_C.max_dispatch_127
 L  G_C.max_dispatch_128
 L  G_C.max_dispatch_129
 L  G_C.max_dispatch_130
 L  G_C.max_dispatch_131
 L  G_C.max_dispatch_132
 L  G_C.max_dispatch_133
 L  G_C.max_dispatch_134
 L  G_C.max_dispatch_135
 L  G_C.max_dispatch_136
 L  G_C.max_dispatch_137
 L  G_C.max_dispatch_138
 L  G_C.max_dispatch_139
 L  G_C.max_dispatch_140
 L  G_C.max_dispatch_141
 L  G_C.max_dispatch_142
 L  G_C.max_dispatch_143
 L  G_C.max_dispatch_144
 L  G_C.max_dispatch_145
 L  G_C.max_dispatch_146
 L  G_C.max_dispatch_147
 L  G_C.max_dispatch_148
 L  G_C.max_dispatch_149
 L  G_C.max_dispatch_150
 L  G_C.max_dispatch_151
 L  G_C.max_dispatch_152
 L  G_C.max_dispatch_153
 L  G_C.max_dispatch_154
 L  G_C.max_dispatch_155
 L  G_C.max_dispatch_156
 L  G_C.max_dispatch_157
 L  G_C.max_dispatch_158
 L  G_C.max_dispatch_159
 L  G_C.max_dispatch_160
 L  G_C.max_dispatch_161
 L  G_C.max_dispatch_162
 L  G_C.max_dispatch_163
 L  G_C.max_dispatch_164
 L  G_C.max_dispatch_165
 L  G_C.max_dispatch_166
 L  G_C.max_dispatch_167
 G  G_C.min_production
 L  G_C.max_production
 E  T_AB.dc_flow_0
 E  T_AB.dc_flow_1
 E  T_AB.dc_flow_2
 E  T_AB.dc_flow_3
 E  T_AB.dc_flow_4
 E  T_AB.dc_flow_5
 E  T_AB.dc_flow_6
 E  T_AB.dc_flow_7
 E  T_AB.dc_flow_8
 E  T_AB.dc_flow_9
 E  T_AB.dc_flow_10
 E  T_AB.dc_flow_11
 E  T_AB.dc_flow_12
 E  T_AB.dc_flow_13
 E  T_AB.dc_flow_14
 E  T_AB.dc_flow_15
 E  T_AB.dc_flow_16
 E  T_AB.dc_flow_17
 E  T_AB.dc_flow_18
 E  T_AB.dc_flow_19
 E  T_AB.dc_flow_20
 E  T_AB.dc_flow_21
 E  T_AB.dc_flow_22
 E  T_AB.dc_flow_23
 E  T_AB.dc_flow_24
 E  T_AB.dc_flow_25
 E  T_AB.dc_flow_26
 E  T_AB.dc_flow_27
 E  T_AB.dc_flow_28
 E  T_AB.dc_flow_29
 E  T_AB.dc_flow_30
 E  T_AB.dc_flow_31
 E  T_AB.dc_flow_32
 E  T_AB.dc_flow_33
 E  T_AB.dc_flow_34
 E  T_AB.dc_flow_35
 E  T_AB.dc_flow_36
 E  T_AB.dc_flow_37
 E  T_AB.dc_flow_38
 E  T_AB.dc_flow_39
 E  T_AB.dc_flow_40
 E  T_AB.dc_flow_41
 E  T_AB.dc_flow_42
 E  T_AB.dc_flow_43
 E  T_AB.dc_flow_44
 E  T_AB.dc_flow_45
 E  T_AB.dc_flow_46
 E  T_AB.dc_flow_47
 E  T_AB.dc_flow_48
 E  T_AB.dc_flow_49
 E  T_AB.dc_flow_50
 E  T_AB.dc_flow_51
 E  T_AB.dc_flow_52
 E  T_AB.dc_flow_53
 E  T_AB.dc_flow_54
 E  T_AB.dc_flow_55
 E  T_AB.dc_flow_56
 E  T_AB.dc_flow_57
 E  T_AB.dc_flow_58
 E  T_AB.dc_flow_59
 E  T_AB.dc_flow_60
 E  T_AB.dc_flow_61
 E  T_AB.dc_flow_62
 E  T_AB.dc_flow_63
 E  T_AB.dc_flow_64
 E  T_AB.dc_flow_65
 E  T_AB.dc_flow_66
 E  T_AB.dc_flow_67
 E  T_AB.dc_flow_68
 E  T_AB.dc_flow_69
 E  T_AB.dc_flow_70
 E  T_AB.dc_flow_71
 E  T_AB.dc_flow_72
 E  T_AB.dc_flow_73
 E  T_AB.dc_flow_74
 E  T_AB.dc_flow_75
 E  T_AB.dc_flow_76
 E  T_AB.dc_flow_77
 E  T_AB.dc_flow_78
 E  T_AB.dc_flow_79
 E  T_AB.dc_flow_80
 E  T_AB.dc_flow_81
 E  T_AB.dc_flow_82
 E  T_AB.dc_flow_83
 E  T_AB.dc_flow_84
 E  T_AB.dc_flow_85
 E  T_AB.dc_flow_86
 E  T_AB.dc_flow_87
 E  T_AB.dc_flow_88
 E  T_AB.dc_flow_89
 E  T_AB.dc_flow_90
 E  T_AB.dc_flow_91
 E  T_AB.dc_flow_92
 E  T_AB.dc_flow_93
 E  T_AB.dc_flow_94
 E  T_AB.dc_flow_95
 E  T_AB.dc_flow_96
 E  T_AB.dc_flow_97
 E  T_AB.dc_flow_98
 E  T_AB.dc_flow_99
 E  T_AB.dc_flow_100
 E  T_AB.dc_flow_101
 E  T_AB.dc_flow_102
 E  T_AB.dc_flow_103
 E  T_AB.dc_flow_104
 E  T_AB.dc_flow_105
 E  T_AB.dc_flow_106
 E  T_AB.dc_flow_107
 E  T_AB.dc_flow_108
 E  T_AB.dc_flow_109
 E  T_AB.dc_flow_110
 E  T_AB.dc_flow_111
 E  T_AB.dc_flow_112
 E  T_AB.dc_flow_113
 E  T_AB.dc_flow_114
 E  T_AB.dc_flow_115
 E  T_AB.dc_flow_116
 E  T_AB.dc_flow_117
 E  T_AB.dc_flow_118
 E  T_AB.dc_flow_119
 E  T_AB.dc_flow_120
 E  T_AB.dc_flow_121
 E  T_AB.dc_flow_122
 E  T_AB.dc_flow_123
 E  T_AB.dc_flow_124
 E  T_AB.dc_flow_125
 E  T_AB.dc_flow_126
 E  T_AB.dc_flow_127
 E  T_AB.dc_flow_128
 E  T_AB.dc_flow_129
 E  T_AB.dc_flow_130
 E  T_AB.dc_flow_131
 E  T_AB.dc_flow_132
 E  T_AB.dc_flow_133
 E  T_AB.dc_flow_134
 E  T_AB.dc_flow_135
 E  T_AB.dc_flow_136
 E  T_AB.dc_flow_137
 E  T_AB.dc_flow_138
 E  T_AB.dc_flow_139
 E  T_AB.dc_flow_140
 E  T_AB.dc_flow_141
 E  T_AB.dc_flow_142
 E  T_AB.dc_flow_143
 E  T_AB.dc_flow_144
 E  T_AB.dc_flow_145
 E  T_AB.dc_flow_146
 E  T_AB.dc_flow_147
 E  T_AB.dc_flow_148
 E  T_AB.dc_flow_149
 E  T_AB.dc_flow_150
 E  T_AB.dc_flow_151
 E  T_AB.dc_flow_152
 E  T_AB.dc_flow_153
 E  T_AB.dc_flow_154
 E  T_AB.dc_flow_155
 E  T_AB.dc_flow_156
 E  T_AB.dc_flow_157
 E  T_AB.dc_flow_158
 E  T_AB.dc_flow_159
 E  T_AB.dc_flow_160
 E  T_AB.dc_flow_161
 E  T_AB.dc_flow_162
 E  T_AB.dc_flow_163
 E  T_AB.dc_flow_164
 E  T_AB.dc_flow_165
 E  T_AB.dc_flow_166
 E  T_AB.dc_flow_167
 L  T_AB.upper_flow_0
 L  T_AB.upper_flow_1
 L  T_AB.upper_flow_2
 L  T_AB.upper_flow_3
 L  T_AB.upper_flow_4
 L  T_AB.upper_flow_5
 L  T_AB.upper_flow_6
 L  T_AB.upper_flow_7
 L  T_AB.upper_flow_8
 L  T_AB.upper_flow_9
 L  T_AB.upper_flow_10
 L  T_AB.upper_flow_11
 L  T_AB.upper_flow_12
 L  T_AB.upper_flow_13
 L  T_AB.upper_flow_14
 L  T_AB.upper_flow_15
 L  T_AB.upper_flow_16
 L  T_AB.upper_flow_17
 L  T_AB.upper_flow_18
 L  T_AB.upper_flow_19
 L  T_AB.upper_flow_20
 L  T_AB.upper_flow_21
 L  T_AB.upper_flow_22
 L  T_AB.upper_flow_23
 L  T_AB.upper_flow_24
 L  T_AB.upper_flow_25
 L  T_AB.upper_flow_26
 L  T_AB.upper_flow_27
 L  T_AB.upper_flow_28
 L  T_AB.upper_flow_29
 L  T_AB.upper_flow_30
 L  T_AB.upper_flow_31
 L  T_AB.upper_flow_32
 L  T_AB.upper_flow_33
 L  T_AB.upper_flow_34
 L  T_AB.upper_flow_35
 L  T_AB.upper_flow_36
 L  T_AB.upper_flow_37
 L  T_AB.upper_flow_38
 L  T_AB.upper_flow_39
 L  T_AB.upper_flow_40
 L  T_AB.upper_flow_41
 L  T_AB.upper_flow_42
 L  T_AB.upper_flow_43
 L  T_AB.upper_flow_44
 L  T_AB.upper_flow_45
 L  T_AB.upper_flow_46
 L  T_AB.upper_flow_47
 L  T_AB.upper_flow_48
 L  T_AB.upper_flow_49
 L  T_AB.upper_flow_50
 L  T_AB.upper_flow_51
 L  T_AB.upper_flow_52
 L  T_AB.upper_flow_53
 L  T_AB.upper_flow_54
 L  T_AB.upper_flow_55
 L  T_AB.upper_flow_56
 L  T_AB.upper_flow_57
 L  T_AB.upper_flow_58
 L  T_AB.upper_flow_59
 L  T_AB.upper_flow_60
 L  T_AB.upper_flow_61
 L  T_AB.upper_flow_62
 L  T_AB.upper_flow_63
 L  T_AB.upper_flow_64
 L  T_AB.upper_flow_65
 L  T_AB.upper_flow_66
 L  T_AB.upper_flow_67
 L  T_AB.upper_flow_68
 L  T_AB.upper_flow_69
 L  T_AB.upper_flow_70
 L  T_AB.upper_flow_71
 L  T_AB.upper_flow_72
 L  T_AB.upper_flow_73
 L  T_AB.upper_flow_74
 L  T_AB.upper_flow_75
 L  T_AB.upper_flow_76
 L  T_AB.upper_flow_77
 L  T_AB.upper_flow_78
 L  T_AB.upper_flow_79
 L  T_AB.upper_flow_80
 L  T_AB.upper_flow_81
 L  T_AB.upper_flow_82
 L  T_AB.upper_flow_83
 L  T_AB.upper_flow_84
 L  T_AB.upper_flow_85
 L  T_AB.upper_flow_86
 L  T_AB.upper_flow_87
 L  T_AB.upper_flow_88
 L  T_AB.upper_flow_89
 L  T_AB.upper_flow_90
 L  T_AB.upper_flow_91
 L  T_AB.upper_flow_92
 L  T_AB.upper_flow_93
 L  T_AB.upper_flow_94
 L  T_AB.upper_flow_95
 L  T_AB.upper_flow_96
 L  T_AB.upper_flow_97
 L  T_AB.upper_flow_98
 L  T_AB.upper_flow_99
 L  T_AB.upper_flow_100
 L  T_AB.upper_flow_101
 L  T_AB.upper_flow_102
 L  T_AB.upper_flow_103
 L  T_AB.upper_flow_104
 L  T_AB.upper_flow_105
 L  T_AB.upper_flow_106
 L  T_AB.upper_flow_107
 L  T_AB.upper_flow_108
 L  T_AB.upper_flow_109
 L  T_AB.upper_flow_110
 L  T_AB.upper_flow_111
 L  T_AB.upper_flow_112
 L  T_AB.upper_flow_113
 L  T_AB.upper_flow_114
 L  T_AB.upper_flow_115
 L  T_AB.upper_flow_116
 L  T_AB.upper_flow_117
 L  T_AB.upper_flow_118
 L  T_AB.upper_flow_119
 L  T_AB.upper_flow_120
 L  T_AB.upper_flow_121
 L  T_AB.upper_flow_122
 L  T_AB.upper_flow_123
 L  T_AB.upper_flow_124
 L  T_AB.upper_flow_125
 L  T_AB.upper_flow_126
 L  T_AB.upper_flow_127
 L  T_AB.upper_flow_128
 L  T_AB.upper_flow_129
 L  T_AB.upper_flow_130
 L  T_AB.upper_flow_131
 L  T_AB.upper_flow_132
 L  T_AB.upper_flow_133
 L  T_AB.upper_flow_134
 L  T_AB.upper_flow_135
 L  T_AB.upper_flow_136
 L  T_AB.upper_flow_137
 L  T_AB.upper_flow_138
 L  T_AB.upper_flow_139
 L  T_AB.upper_flow_140
 L  T_AB.upper_flow_141
 L  T_AB.upper_flow_142
 L  T_AB.upper_flow_143
 L  T_AB.upper_flow_144
 L  T_AB.upper_flow_145
 L  T_AB.upper_flow_146
 L  T_AB.upper_flow_147
 L  T_AB.upper_flow_148
 L  T_AB.upper_flow_149
 L  T_AB.upper_flow_150
 L  T_AB.upper_flow_151
 L  T_AB.upper_flow_152
 L  T_AB.upper_flow_153
 L  T_AB.upper_flow_154
 L  T_AB.upper_flow_155
 L  T_AB.upper_flow_156
 L  T_AB.upper_flow_157
 L  T_AB.upper_flow_158
 L  T_AB.upper_flow_159
 L  T_AB.upper_flow_160
 L  T_AB.upper_flow_161
 L  T_AB.upper_flow_162
 L  T_AB.upper_flow_163
 L  T_AB.upper_flow_164
 L  T_AB.upper_flow_165
 L  T_AB.upper_flow_166
 L  T_AB.upper_flow_167
 G  T_AB.lower_flow_0
 G  T_AB.lower_flow_1
 G  T_AB.lower_flow_2
 G  T_AB.lower_flow_3
 G  T_AB.lower_flow_4
 G  T_AB.lower_flow_5
 G  T_AB.lower_flow_6
 G  T_AB.lower_flow_7
 G  T_AB.lower_flow_8
 G  T_AB.lower_flow_9
 G  T_AB.lower_flow_10
 G  T_AB.lower_flow_11
 G  T_AB.lower_flow_12
 G  T_AB.lower_flow_13
 G  T_AB.lower_flow_14
 G  T_AB.lower_flow_15
 G  T_AB.lower_flow_16
 G  T_AB.lower_flow_17
 G  T_AB.lower_flow_18
 G  T_AB.lower_flow_19
 G  T_AB.lower_flow_20
 G  T_AB.lower_flow_21
 G  T_AB.lower_flow_22
 G  T_AB.lower_flow_23
 G  T_AB.lower_flow_24
 G  T_AB.lower_flow_25
 G  T_AB.lower_flow_26
 G  T_AB.lower_flow_27
 G  T_AB.lower_flow_28
 G  T_AB.lower_flow_29
 G  T_AB.lower_flow_30
 G  T_AB.lower_flow_31
 G  T_AB.lower_flow_32
 G  T_AB.lower_flow_33
 G  T_AB.lower_flow_34
 G  T_AB.lower_flow_35
 G  T_AB.lower_flow_36
 G  T_AB.lower_flow_37
 G  T_AB.lower_flow_38
 G  T_AB.lower_flow_39
 G  T_AB.lower_flow_40
 G  T_AB.lower_flow_41
 G  T_AB.lower_flow_42
 G  T_AB.lower_flow_43
 G  T_AB.lower_flow_44
 G  T_AB.lower_flow_45
 G  T_AB.lower_flow_46
 G  T_AB.lower_flow_47
 G  T_AB.lower_flow_48
 G  T_AB.lower_flow_49
 G  T_AB.lower_flow_50
 G  T_AB.lower_flow_51
 G  T_AB.lower_flow_52
 G  T_AB.lower_flow_53
 G  T_AB.lower_flow_54
 G  T_AB.lower_flow_55
 G  T_AB.lower_flow_56
 G  T_AB.lower_flow_57
 G  T_AB.lower_flow_58
 G  T_AB.lower_flow_59
 G  T_AB.lower_flow_60
 G  T_AB.lower_flow_61
 G  T_AB.lower_flow_62
 G  T_AB.lower_flow_63
 G  T_AB.lower_flow_64
 G  T_AB.lower_flow_65
 G  T_AB.lower_flow_66
 G  T_AB.lower_flow_67
 G  T_AB.lower_flow_68
 G  T_AB.lower_flow_69
 G  T_AB.lower_flow_70
 G  T_AB.lower_flow_71
 G  T_AB.lower_flow_72
 G  T_AB.lower_flow_73
 G  T_AB.lower_flow_74
 G  T_AB.lower_flow_75
 G  T_AB.lower_flow_76
 G  T_AB.lower_flow_77
 G  T_AB.lower_flow_78
 G  T_AB.lower_flow_79
 G  T_AB.lower_flow_80
 G  T_AB.lower_flow_81
 G  T_AB.lower_flow_82
 G  T_AB.lower_flow_83
 G  T_AB.lower_flow_84
 G  T_AB.lower_flow_85
 G  T_AB.lower_flow_86
 G  T_AB.lower_flow_87
 G  T_AB.lower_flow_88
 G  T_AB.lower_flow_89
 G  T_AB.lower_flow_90
 G  T_AB.lower_flow_91
 G  T_AB.lower_flow_92
 G  T_AB.lower_flow_93
 G  T_AB.lower_flow_94
 G  T_AB.lower_flow_95
 G  T_AB.lower_flow_96
 G  T_AB.lower_flow_97
 G  T_AB.lower_flow_98
 G  T_AB.lower_flow_99
 G  T_AB.lower_flow_100
 G  T_AB.lower_flow_101
 G  T_AB.lower_flow_102
 G  T_AB.lower_flow_103
 G  T_AB.lower_flow_104
 G  T_AB.lower_flow_105
 G  T_AB.lower_flow_106
 G  T_AB.lower_flow_107
 G  T_AB.lower_flow_108
 G  T_AB.lower_flow_109
 G  T_AB.lower_flow_110
 G  T_AB.lower_flow_111
 G  T_AB.lower_flow_112
 G  T_AB.lower_flow_113
 G  T_AB.lower_flow_114
 G  T_AB.lower_flow_115
 G  T_AB.lower_flow_116
 G  T_AB.lower_flow_117
 G  T_AB.lower_flow_118
 G  T_AB.lower_flow_119
 G  T_AB.lower_flow_120
 G  T_AB.lower_flow_121
 G  T_AB.lower_flow_122
 G  T_AB.lower_flow_123
 G  T_AB.lower_flow_124
 G  T_AB.lower_flow_125
 G  T_AB.lower_flow_126
 G  T_AB.lower_flow_127
 G  T_AB.lower_flow_128
 G  T_AB.lower_flow_129
 G  T_AB.lower_flow_130
 G  T_AB.lower_flow_131
 G  T_AB.lower_flow_132
 G  T_AB.lower_flow_133
 G  T_AB.lower_flow_134
 G  T_AB.lower_flow_135
 G  T_AB.lower_flow_136
 G  T_AB.lower_flow_137
 G  T_AB.lower_flow_138
 G  T_AB.lower_flow_139
 G  T_AB.lower_flow_140
 G  T_AB.lower_flow_141
 G  T_AB.lower_flow_142
 G  T_AB.lower_flow_143
 G  T_AB.lower_flow_144
 G  T_AB.lower_flow_145
 G  T_AB.lower_flow_146
 G  T_AB.lower_flow_147
 G  T_AB.lower_flow_148
 G  T_AB.lower_flow_149
 G  T_AB.lower_flow_150
 G  T_AB.lower_flow_151
 G  T_AB.lower_flow_152
 G  T_AB.lower_flow_153
 G  T_AB.lower_flow_154
 G  T_AB.lower_flow_155
 G  T_AB.lower_flow_156
 G  T_AB.lower_flow_157
 G  T_AB.lower_flow_158
 G  T_AB.lower_flow_159
 G  T_AB.lower_flow_160
 G  T_AB.lower_flow_161
 G  T_AB.lower_flow_162
 G  T_AB.lower_flow_163
 G  T_AB.lower_flow_164
 G  T_AB.lower_flow_165
 G  T_AB.lower_flow_166
 G  T_AB.lower_flow_167
 E  BC.dc_flow_0
 E  BC.dc_flow_1
 E  BC.dc_flow_2
 E  BC.dc_flow_3
 E  BC.dc_flow_4
 E  BC.dc_flow_5
 E  BC.dc_flow_6
 E  BC.dc_flow_7
 E  BC.dc_flow_8
 E  BC.dc_flow_9
 E  BC.dc_flow_10
 E  BC.dc_flow_11
 E  BC.dc_flow_12
 E  BC.dc_flow_13
 E  BC.dc_flow_14
 E  BC.dc_flow_15
 E  BC.dc_flow_16
 E  BC.dc_flow_17
 E  BC.dc_flow_18
 E  BC.dc_flow_19
 E  BC.dc_flow_20
 E  BC.dc_flow_21
 E  BC.dc_flow_22
 E  BC.dc_flow_23
 E  BC.dc_flow_24
 E  BC.dc_flow_25
 E  BC.dc_flow_26
 E  BC.dc_flow_27
 E  BC.dc_flow_28
 E  BC.dc_flow_29
 E  BC.dc_flow_30
 E  BC.dc_flow_31
 E  BC.dc_flow_32
 E  BC.dc_flow_33
 E  BC.dc_flow_34
 E  BC.dc_flow_35
 E  BC.dc_flow_36
 E  BC.dc_flow_37
 E  BC.dc_flow_38
 E  BC.dc_flow_39
 E  BC.dc_flow_40
 E  BC.dc_flow_41
 E  BC.dc_flow_42
 E  BC.dc_flow_43
 E  BC.dc_flow_44
 E  BC.dc_flow_45
 E  BC.dc_flow_46
 E  BC.dc_flow_47
 E  BC.dc_flow_48
 E  BC.dc_flow_49
 E  BC.dc_flow_50
 E  BC.dc_flow_51
 E  BC.dc_flow_52
 E  BC.dc_flow_53
 E  BC.dc_flow_54
 E  BC.dc_flow_55
 E  BC.dc_flow_56
 E  BC.dc_flow_57
 E  BC.dc_flow_58
 E  BC.dc_flow_59
 E  BC.dc_flow_60
 E  BC.dc_flow_61
 E  BC.dc_flow_62
 E  BC.dc_flow_63
 E  BC.dc_flow_64
 E  BC.dc_flow_65
 E  BC.dc_flow_66
 E  BC.dc_flow_67
 E  BC.dc_flow_68
 E  BC.dc_flow_69
 E  BC.dc_flow_70
 E  BC.dc_flow_71
 E  BC.dc_flow_72
 E  BC.dc_flow_73
 E  BC.dc_flow_74
 E  BC.dc_flow_75
 E  BC.dc_flow_76
 E  BC.dc_flow_77
 E  BC.dc_flow_78
 E  BC.dc_flow_79
 E  BC.dc_flow_80
 E  BC.dc_flow_81
 E  BC.dc_flow_82
 E  BC.dc_flow_83
 E  BC.dc_flow_84
 E  BC.dc_flow_85
 E  BC.dc_flow_86
 E  BC.dc_flow_87
 E  BC.dc_flow_88
 E  BC.dc_flow_89
 E  BC.dc_flow_90
 E  BC.dc_flow_91
 E  BC.dc_flow_92
 E  BC.dc_flow_93
 E  BC.dc_flow_94
 E  BC.dc_flow_95
 E  BC.dc_flow_96
 E  BC.dc_flow_97
 E  BC.dc_flow_98
 E  BC.dc_flow_99
 E  BC.dc_flow_100
 E  BC.dc_flow_101
 E  BC.dc_flow_102
 E  BC.dc_flow_103
 E  BC.dc_flow_104
 E  BC.dc_flow_105
 E  BC.dc_flow_106
 E  BC.dc_flow_107
 E  BC.dc_flow_108
 E  BC.dc_flow_109
 E  BC.dc_flow_110
 E  BC.dc_flow_111
 E  BC.dc_flow_112
 E  BC.dc_flow_113
 E  BC.dc_flow_114
 E  BC.dc_flow_115
 E  BC.dc_flow_116
 E  BC.dc_flow_117
 E  BC.dc_flow_118
 E  BC.dc_flow_119
 E  BC.dc_flow_120
 E  BC.dc_flow_121
 E  BC.dc_flow_122
 E  BC.dc_flow_123
 E  BC.dc_flow_124
 E  BC.dc_flow_125
 E  BC.dc_flow_126
 E  BC.dc_flow_127
 E  BC.dc_flow_128
 E  BC.dc_flow_129
 E  BC.dc_flow_130
 E  BC.dc_flow_131
 E  BC.dc_flow_132
 E  BC.dc_flow_133
 E  BC.dc_flow_134
 E  BC.dc_flow_135
 E  BC.dc_flow_136
 E  BC.dc_flow_137
 E  BC.dc_flow_138
 E  BC.dc_flow_139
 E  BC.dc_flow_140
 E  BC.dc_flow_141
 E  BC.dc_flow_142
 E  BC.dc_flow_143
 E  BC.dc_flow_144
 E  BC.dc_flow_145
 E  BC.dc_flow_146
 E  BC.dc_flow_147
 E  BC.dc_flow_148
 E  BC.dc_flow_149
 E  BC.dc_flow_150
 E  BC.dc_flow_151
 E  BC.dc_flow_152
 E  BC.dc_flow_153
 E  BC.dc_flow_154
 E  BC.dc_flow_155
 E  BC.dc_flow_156
 E  BC.dc_flow_157
 E  BC.dc_flow_158
 E  BC.dc_flow_159
 E  BC.dc_flow_160
 E  BC.dc_flow_161
 E  BC.dc_flow_162
 E  BC.dc_flow_163
 E  BC.dc_flow_164
 E  BC.dc_flow_165
 E  BC.dc_flow_166
 E  BC.dc_flow_167
 L  BC.upper_flow_0
 L  BC.upper_flow_1
 L  BC.upper_flow_2
 L  BC.upper_flow_3
 L  BC.upper_flow_4
 L  BC.upper_flow_5
 L  BC.upper_flow_6
 L  BC.upper_flow_7
 L  BC.upper_flow_8
 L  BC.upper_flow_9
 L  BC.upper_flow_10
 L  BC.upper_flow_11
 L  BC.upper_flow_12
 L  BC.upper_flow_13
 L  BC.upper_flow_14
 L  BC.upper_flow_15
 L  BC.upper_flow_16
 L  BC.upper_flow_17
 L  BC.upper_flow_18
 L  BC.upper_flow_19
 L  BC.upper_flow_20
 L  BC.upper_flow_21
 L  BC.upper_flow_22
 L  BC.upper_flow_23
 L  BC.upper_flow_24
 L  BC.upper_flow_25
 L  BC.upper_flow_26
 L  BC.upper_flow_27
 L  BC.upper_flow_28
 L  BC.upper_flow_29
 L  BC.upper_flow_30
 L  BC.upper_flow_31
 L  BC.upper_flow_32
 L  BC.upper_flow_33
 L  BC.upper_flow_34
 L  BC.upper_flow_35
 L  BC.upper_flow_36
 L  BC.upper_flow_37
 L  BC.upper_flow_38
 L  BC.upper_flow_39
 L  BC.upper_flow_40
 L  BC.upper_flow_41
 L  BC.upper_flow_42
 L  BC.upper_flow_43
 L  BC.upper_flow_44
 L  BC.upper_flow_45
 L  BC.upper_flow_46
 L  BC.upper_flow_47
 L  BC.upper_flow_48
 L  BC.upper_flow_49
 L  BC.upper_flow_50
 L  BC.upper_flow_51
 L  BC.upper_flow_52
 L  BC.upper_flow_53
 L  BC.upper_flow_54
 L  BC.upper_flow_55
 L  BC.upper_flow_56
 L  BC.upper_flow_57
 L  BC.upper_flow_58
 L  BC.upper_flow_59
 L  BC.upper_flow_60
 L  BC.upper_flow_61
 L  BC.upper_flow_62
 L  BC.upper_flow_63
 L  BC.upper_flow_64
 L  BC.upper_flow_65
 L  BC.upper_flow_66
 L  BC.upper_flow_67
 L  BC.upper_flow_68
 L  BC.upper_flow_69
 L  BC.upper_flow_70
 L  BC.upper_flow_71
 L  BC.upper_flow_72
 L  BC.upper_flow_73
 L  BC.upper_flow_74
 L  BC.upper_flow_75
 L  BC.upper_flow_76
 L  BC.upper_flow_77
 L  BC.upper_flow_78
 L  BC.upper_flow_79
 L  BC.upper_flow_80
 L  BC.upper_flow_81
 L  BC.upper_flow_82
 L  BC.upper_flow_83
 L  BC.upper_flow_84
 L  BC.upper_flow_85
 L  BC.upper_flow_86
 L  BC.upper_flow_87
 L  BC.upper_flow_88
 L  BC.upper_flow_89
 L  BC.upper_flow_90
 L  BC.upper_flow_91
 L  BC.upper_flow_92
 L  BC.upper_flow_93
 L  BC.upper_flow_94
 L  BC.upper_flow_95
 L  BC.upper_flow_96
 L  BC.upper_flow_97
 L  BC.upper_flow_98
 L  BC.upper_flow_99
 L  BC.upper_flow_100
 L  BC.upper_flow_101
 L  BC.upper_flow_102
 L  BC.upper_flow_103
 L  BC.upper_flow_104
 L  BC.upper_flow_105
 L  BC.upper_flow_106
 L  BC.upper_flow_107
 L  BC.upper_flow_108
 L  BC.upper_flow_109
 L  BC.upper_flow_110
 L  BC.upper_flow_111
 L  BC.upper_flow_112
 L  BC.upper_flow_113
 L  BC.upper_flow_114
 L  BC.upper_flow_115
 L  BC.upper_flow_116
 L  BC.upper_flow_117
 L  BC.upper_flow_118
 L  BC.upper_flow_119
 L  BC.upper_flow_120
 L  BC.upper_flow_121
 L  BC.upper_flow_122
 L  BC.upper_flow_123
 L  BC.upper_flow_124
 L  BC.upper_flow_125
 L  BC.upper_flow_126
 L  BC.upper_flow_127
 L  BC.upper_flow_128
 L  BC.upper_flow_129
 L  BC.upper_flow_130
 L  BC.upper_flow_131
 L  BC.upper_flow_132
 L  BC.upper_flow_133
 L  BC.upper_flow_134
 L  BC.upper_flow_135
 L  BC.upper_flow_136
 L  BC.upper_flow_137
 L  BC.upper_flow_138
 L  BC.upper_flow_139
 L  BC.upper_flow_140
 L  BC.upper_flow_141
 L  BC.upper_flow_142
 L  BC.upper_flow_143
 L  BC.upper_flow_144
 L  BC.upper_flow_145
 L  BC.upper_flow_146
 L  BC.upper_flow_147
 L  BC.upper_flow_148
 L  BC.upper_flow_149
 L  BC.upper_flow_150
 L  BC.upper_flow_151
 L  BC.upper_flow_152
 L  BC.upper_flow_153
 L  BC.upper_flow_154
 L  BC.upper_flow_155
 L  BC.upper_flow_156
 L  BC.upper_flow_157
 L  BC.upper_flow_158
 L  BC.upper_flow_159
 L  BC.upper_flow_160
 L  BC.upper_flow_161
 L  BC.upper_flow_162
 L  BC.upper_flow_163
 L  BC.upper_flow_164
 L  BC.upper_flow_165
 L  BC.upper_flow_166
 L  BC.upper_flow_167
 G  BC.lower_flow_0
 G  BC.lower_flow_1
 G  BC.lower_flow_2
 G  BC.lower_flow_3
 G  BC.lower_flow_4
 G  BC.lower_flow_5
 G  BC.lower_flow_6
 G  BC.lower_flow_7
 G  BC.lower_flow_8
 G  BC.lower_flow_9
 G  BC.lower_flow_10
 G  BC.lower_flow_11
 G  BC.lower_flow_12
 G  BC.lower_flow_13
 G  BC.lower_flow_14
 G  BC.lower_flow_15
 G  BC.lower_flow_16
 G  BC.lower_flow_17
 G  BC.lower_flow_18
 G  BC.lower_flow_19
 G  BC.lower_flow_20
 G  BC.lower_flow_21
 G  BC.lower_flow_22
 G  BC.lower_flow_23
 G  BC.lower_flow_24
 G  BC.lower_flow_25
 G  BC.lower_flow_26
 G  BC.lower_flow_27
 G  BC.lower_flow_28
 G  BC.lower_flow_29
 G  BC.lower_flow_30
 G  BC.lower_flow_31
 G  BC.lower_flow_32
 G  BC.lower_flow_33
 G  BC.lower_flow_34
 G  BC.lower_flow_35
 G  BC.lower_flow_36
 G  BC.lower_flow_37
 G  BC.lower_flow_38
 G  BC.lower_flow_39
 G  BC.lower_flow_40
 G  BC.lower_flow_41
 G  BC.lower_flow_42
 G  BC.lower_flow_43
 G  BC.lower_flow_44
 G  BC.lower_flow_45
 G  BC.lower_flow_46
 G  BC.lower_flow_47
 G  BC.lower_flow_48
 G  BC.lower_flow_49
 G  BC.lower_flow_50
 G  BC.lower_flow_51
 G  BC.lower_flow_52
 G  BC.lower_flow_53
 G  BC.lower_flow_54
 G  BC.lower_flow_55
 G  BC.lower_flow_56
 G  BC.lower_flow_57
 G  BC.lower_flow_58
 G  BC.lower_flow_59
 G  BC.lower_flow_60
 G  BC.lower_flow_61
 G  BC.lower_flow_62
 G  BC.lower_flow_63
 G  BC.lower_flow_64
 G  BC.lower_flow_65
 G  BC.lower_flow_66
 G  BC.lower_flow_67
 G  BC.lower_flow_68
 G  BC.lower_flow_69
 G  BC.lower_flow_70
 G  BC.lower_flow_71
 G  BC.lower_flow_72
 G  BC.lower_flow_73
 G  BC.lower_flow_74
 G  BC.lower_flow_75
 G  BC.lower_flow_76
 G  BC.lower_flow_77
 G  BC.lower_flow_78
 G  BC.lower_flow_79
 G  BC.lower_flow_80
 G  BC.lower_flow_81
 G  BC.lower_flow_82
 G  BC.lower_flow_83
 G  BC.lower_flow_84
 G  BC.lower_flow_85
 G  BC.lower_flow_86
 G  BC.lower_flow_87
 G  BC.lower_flow_88
 G  BC.lower_flow_89
 G  BC.lower_flow_90
 G  BC.lower_flow_91
 G  BC.lower_flow_92
 G  BC.lower_flow_93
 G  BC.lower_flow_94
 G  BC.lower_flow_95
 G  BC.lower_flow_96
 G  BC.lower_flow_97
 G  BC.lower_flow_98
 G  BC.lower_flow_99
 G  BC.lower_flow_100
 G  BC.lower_flow_101
 G  BC.lower_flow_102
 G  BC.lower_flow_103
 G  BC.lower_flow_104
 G  BC.lower_flow_105
 G  BC.lower_flow_106
 G  BC.lower_flow_107
 G  BC.lower_flow_108
 G  BC.lower_flow_109
 G  BC.lower_flow_110
 G  BC.lower_flow_111
 G  BC.lower_flow_112
 G  BC.lower_flow_113
 G  BC.lower_flow_114
 G  BC.lower_flow_115
 G  BC.lower_flow_116
 G  BC.lower_flow_117
 G  BC.lower_flow_118
 G  BC.lower_flow_119
 G  BC.lower_flow_120
 G  BC.lower_flow_121
 G  BC.lower_flow_122
 G  BC.lower_flow_123
 G  BC.lower_flow_124
 G  BC.lower_flow_125
 G  BC.lower_flow_126
 G  BC.lower_flow_127
 G  BC.lower_flow_128
 G  BC.lower_flow_129
 G  BC.lower_flow_130
 G  BC.lower_flow_131
 G  BC.lower_flow_132
 G  BC.lower_flow_133
 G  BC.lower_flow_134
 G  BC.lower_flow_135
 G  BC.lower_flow_136
 G  BC.lower_flow_137
 G  BC.lower_flow_138
 G  BC.lower_flow_139
 G  BC.lower_flow_140
 G  BC.lower_flow_141
 G  BC.lower_flow_142
 G  BC.lower_flow_143
 G  BC.lower_flow_144
 G  BC.lower_flow_145
 G  BC.lower_flow_146
 G  BC.lower_flow_147
 G  BC.lower_flow_148
 G  BC.lower_flow_149
 G  BC.lower_flow_150
 G  BC.lower_flow_151
 G  BC.lower_flow_152
 G  BC.lower_flow_153
 G  BC.lower_flow_154
 G  BC.lower_flow_155
 G  BC.lower_flow_156
 G  BC.lower_flow_157
 G  BC.lower_flow_158
 G  BC.lower_flow_159
 G  BC.lower_flow_160
 G  BC.lower_flow_161
 G  BC.lower_flow_162
 G  BC.lower_flow_163
 G  BC.lower_flow_164
 G  BC.lower_flow_165
 G  BC.lower_flow_166
 G  BC.lower_flow_167
COLUMNS
    A_HV.theta_s0_t0       A_HV.theta_zero_0            1  T_AB.dc_flow_0            -750
    A_HV.theta_s0_t1       A_HV.theta_zero_1            1  T_AB.dc_flow_1            -750
    A_HV.theta_s0_t2       A_HV.theta_zero_2            1  T_AB.dc_flow_2            -750
    A_HV.theta_s0_t3       A_HV.theta_zero_3            1  T_AB.dc_flow_3            -750
    A_HV.theta_s0_t4       A_HV.theta_zero_4            1  T_AB.dc_flow_4            -750
    A_HV.theta_s0_t5       A_HV.theta_zero_5            1  T_AB.dc_flow_5            -750
    A_HV.theta_s0_t6       A_HV.theta_zero_6            1  T_AB.dc_flow_6            -750
    A_HV.theta_s0_t7       A_HV.theta_zero_7            1  T_AB.dc_flow_7            -750
    A_HV.theta_s0_t8       A_HV.theta_zero_8            1  T_AB.dc_flow_8            -750
    A_HV.theta_s0_t9       A_HV.theta_zero_9            1  T_AB.dc_flow_9            -750
    A_HV.theta_s0_t10      A_HV.theta_zero_10           1  T_AB.dc_flow_10           -750
    A_HV.theta_s0_t11      A_HV.theta_zero_11           1  T_AB.dc_flow_11           -750
    A_HV.theta_s0_t12      A_HV.theta_zero_12           1  T_AB.dc_flow_12           -750
    A_HV.theta_s0_t13      A_HV.theta_zero_13           1  T_AB.dc_flow_13           -750
    A_HV.theta_s0_t14      A_HV.theta_zero_14           1  T_AB.dc_flow_14           -750
    A_HV.theta_s0_t15      A_HV.theta_zero_15           1  T_AB.dc_flow_15           -750
    A_HV.theta_s0_t16      A_HV.theta_zero_16           1  T_AB.dc_flow_16           -750
    A_HV.theta_s0_t17      A_HV.theta_zero_17           1  T_AB.dc_flow_17           -750
    A_HV.theta_s0_t18      A_HV.theta_zero_18           1  T_AB.dc_flow_18           -750
    A_HV.theta_s0_t19      A_HV.theta_zero_19           1  T_AB.dc_flow_19           -750
    A_HV.theta_s0_t20      A_HV.theta_zero_20           1  T_AB.dc_flow_20           -750
    A_HV.theta_s0_t21      A_HV.theta_zero_21           1  T_AB.dc_flow_21           -750
    A_HV.theta_s0_t22      A_HV.theta_zero_22           1  T_AB.dc_flow_22           -750
    A_HV.theta_s0_t23      A_HV.theta_zero_23           1  T_AB.dc_flow_23           -750
    A_HV.theta_s0_t24      A_HV.theta_zero_24           1  T_AB.dc_flow_24           -750
    A_HV.theta_s0_t25      A_HV.theta_zero_25           1  T_AB.dc_flow_25           -750
    A_HV.theta_s0_t26      A_HV.theta_zero_26           1  T_AB.dc_flow_26           -750
    A_HV.theta_s0_t27      A_HV.theta_zero_27           1  T_AB.dc_flow_27           -750
    A_HV.theta_s0_t28      A_HV.theta_zero_28           1  T_AB.dc_flow_28           -750
    A_HV.theta_s0_t29      A_HV.theta_zero_29           1  T_AB.dc_flow_29           -750
    A_HV.theta_s0_t30      A_HV.theta_zero_30           1  T_AB.dc_flow_30           -750
    A_HV.theta_s0_t31      A_HV.theta_zero_31           1  T_AB.dc_flow_31           -750
    A_HV.theta_s0_t32      A_HV.theta_zero_32           1  T_AB.dc_flow_32           -750
    A_HV.theta_s0_t33      A_HV.theta_zero_33           1  T_AB.dc_flow_33           -750
    A_HV.theta_s0_t34      A_HV.theta_zero_34           1  T_AB.dc_flow_34           -750
    A_HV.theta_s0_t35      A_HV.theta_zero_35           1  T_AB.dc_flow_35           -750
    A_HV.theta_s0_t36      A_HV.theta_zero_36           1  T_AB.dc_flow_36           -750
    A_HV.theta_s0_t37      A_HV.theta_zero_37           1  T_AB.dc_flow_37           -750
    A_HV.theta_s0_t38      A_HV.theta_zero_38           1  T_AB.dc_flow_38           -750
    A_HV.theta_s0_t39      A_HV.theta_zero_39           1  T_AB.dc_flow_39           -750
    A_HV.theta_s0_t40      A_HV.theta_zero_40           1  T_AB.dc_flow_40           -750
    A_HV.theta_s0_t41      A_HV.theta_zero_41           1  T_AB.dc_flow_41           -750
    A_HV.theta_s0_t42      A_HV.theta_zero_42           1  T_AB.dc_flow_42           -750
    A_HV.theta_s0_t43      A_HV.theta_zero_43           1  T_AB.dc_flow_43           -750
    A_HV.theta_s0_t44      A_HV.theta_zero_44           1  T_AB.dc_flow_44           -750
    A_HV.theta_s0_t45      A_HV.theta_zero_45           1  T_AB.dc_flow_45           -750
    A_HV.theta_s0_t46      A_HV.theta_zero_46           1  T_AB.dc_flow_46           -750
    A_HV.theta_s0_t47      A_HV.theta_zero_47           1  T_AB.dc_flow_47           -750
    A_HV.theta_s0_t48      A_HV.theta_zero_48           1  T_AB.dc_flow_48           -750
    A_HV.theta_s0_t49      A_HV.theta_zero_49           1  T_AB.dc_flow_49           -750
    A_HV.theta_s0_t50      A_HV.theta_zero_50           1  T_AB.dc_flow_50           -750
    A_HV.theta_s0_t51      A_HV.theta_zero_51           1  T_AB.dc_flow_51           -750
    A_HV.theta_s0_t52      A_HV.theta_zero_52           1  T_AB.dc_flow_52           -750
    A_HV.theta_s0_t53      A_HV.theta_zero_53           1  T_AB.dc_flow_53           -750
    A_HV.theta_s0_t54      A_HV.theta_zero_54           1  T_AB.dc_flow_54           -750
    A_HV.theta_s0_t55      A_HV.theta_zero_55           1  T_AB.dc_flow_55           -750
    A_HV.theta_s0_t56      A_HV.theta_zero_56           1  T_AB.dc_flow_56           -750
    A_HV.theta_s0_t57      A_HV.theta_zero_57           1  T_AB.dc_flow_57           -750
    A_HV.theta_s0_t58      A_HV.theta_zero_58           1  T_AB.dc_flow_58           -750
    A_HV.theta_s0_t59      A_HV.theta_zero_59           1  T_AB.dc_flow_59           -750
    A_HV.theta_s0_t60      A_HV.theta_zero_60           1  T_AB.dc_flow_60           -750
    A_HV.theta_s0_t61      A_HV.theta_zero_61           1  T_AB.dc_flow_61           -750
    A_HV.theta_s0_t62      A_HV.theta_zero_62           1  T_AB.dc_flow_62           -750
    A_HV.theta_s0_t63      A_HV.theta_zero_63           1  T_AB.dc_flow_63           -750
    A_HV.theta_s0_t64      A_HV.theta_zero_64           1  T_AB.dc_flow_64           -750
    A_HV.theta_s0_t65      A_HV.theta_zero_65           1  T_AB.dc_flow_65           -750
    A_HV.theta_s0_t66      A_HV.theta_zero_66           1  T_AB.dc_flow_66           -750
    A_HV.theta_s0_t67      A_HV.theta_zero_67           1  T_AB.dc_flow_67           -750
    A_HV.theta_s0_t68      A_HV.theta_zero_68           1  T_AB.dc_flow_68           -750
    A_HV.theta_s0_t69      A_HV.theta_zero_69           1  T_AB.dc_flow_69           -750
    A_HV.theta_s0_t70      A_HV.theta_zero_70           1  T_AB.dc_flow_70           -750
    A_HV.theta_s0_t71      A_HV.theta_zero_71           1  T_AB.dc_flow_71           -750
    A_HV.theta_s0_t72      A_HV.theta_zero_72           1  T_AB.dc_flow_72           -750
    A_HV.theta_s0_t73      A_HV.theta_zero_73           1  T_AB.dc_flow_73           -750
    A_HV.theta_s0_t74      A_HV.theta_zero_74           1  T_AB.dc_flow_74           -750
    A_HV.theta_s0_t75      A_HV.theta_zero_75           1  T_AB.dc_flow_75           -750
    A_HV.theta_s0_t76      A_HV.theta_zero_76           1  T_AB.dc_flow_76           -750
    A_HV.theta_s0_t77      A_HV.theta_zero_77           1  T_AB.dc_flow_77           -750
    A_HV.theta_s0_t78      A_HV.theta_zero_78           1  T_AB.dc_flow_78           -750
    A_HV.theta_s0_t79      A_HV.theta_zero_79           1  T_AB.dc_flow_79           -750
    A_HV.theta_s0_t80      A_HV.theta_zero_80           1  T_AB.dc_flow_80           -750
    A_HV.theta_s0_t81      A_HV.theta_zero_81           1  T_AB.dc_flow_81           -750
    A_HV.theta_s0_t82      A_HV.theta_zero_82           1  T_AB.dc_flow_82           -750
    A_HV.theta_s0_t83      A_HV.theta_zero_83           1  T_AB.dc_flow_83           -750
    A_HV.theta_s0_t84      A_HV.theta_zero_84           1  T_AB.dc_flow_84           -750
    A_HV.theta_s0_t85      A_HV.theta_zero_85           1  T_AB.dc_flow_85           -750
    A_HV.theta_s0_t86      A_HV.theta_zero_86           1  T_AB.dc_flow_86           -750
    A_HV.theta_s0_t87      A_HV.theta_zero_87           1  T_AB.dc_flow_87           -750
    A_HV.theta_s0_t88      A_HV.theta_zero_88           1  T_AB.dc_flow_88           -750
    A_HV.theta_s0_t89      A_HV.theta_zero_89           1  T_AB.dc_flow_89           -750
    A_HV.theta_s0_t90      A_HV.theta_zero_90           1  T_AB.dc_flow_90           -750
    A_HV.theta_s0_t91      A_HV.theta_zero_91           1  T_AB.dc_flow_91           -750
    A_HV.theta_s0_t92      A_HV.theta_zero_92           1  T_AB.dc_flow_92           -750
    A_HV.theta_s0_t93      A_HV.theta_zero_93           1  T_AB.dc_flow_93           -750
    A_HV.theta_s0_t94      A_HV.theta_zero_94           1  T_AB.dc_flow_94           -750
    A_HV.theta_s0_t95      A_HV.theta_zero_95           1  T_AB.dc_flow_95           -750
    A_HV.theta_s0_t96      A_HV.theta_zero_96           1  T_AB.dc_flow_96           -750
    A_HV.theta_s0_t97      A_HV.theta_zero_97           1  T_AB.dc_flow_97           -750
    A_HV.theta_s0_t98      A_HV.theta_zero_98           1  T_AB.dc_flow_98           -750
    A_HV.theta_s0_t99      A_HV.theta_zero_99           1  T_AB.dc_flow_99           -750
    A_HV.theta_s0_t100     A_HV.theta_zero_100          1  T_AB.dc_flow_100          -750
    A_HV.theta_s0_t101     A_HV.theta_zero_101          1  T_AB.dc_flow_101          -750
    A_HV.theta_s0_t102     A_HV.theta_zero_102          1  T_AB.dc_flow_102          -750
    A_HV.theta_s0_t103     A_HV.theta_zero_103          1  T_AB.dc_flow_103          -750
    A_HV.theta_s0_t104     A_HV.theta_zero_104          1  T_AB.dc_flow_104          -750
    A_HV.theta_s0_t105     A_HV.theta_zero_105          1  T_AB.dc_flow_105          -750
    A_HV.theta_s0_t106     A_HV.theta_zero_106          1  T_AB.dc_flow_106          -750
    A_HV.theta_s0_t107     A_HV.theta_zero_107          1  T_AB.dc_flow_107          -750
    A_HV.theta_s0_t108     A_HV.theta_zero_108          1  T_AB.dc_flow_108          -750
    A_HV.theta_s0_t109     A_HV.theta_zero_109          1  T_AB.dc_flow_109          -750
    A_HV.theta_s0_t110     A_HV.theta_zero_110          1  T_AB.dc_flow_110          -750
    A_HV.theta_s0_t111     A_HV.theta_zero_111          1  T_AB.dc_flow_111          -750
    A_HV.theta_s0_t112     A_HV.theta_zero_112          1  T_AB.dc_flow_112          -750
    A_HV.theta_s0_t113     A_HV.theta_zero_113          1  T_AB.dc_flow_113          -750
    A_HV.theta_s0_t114     A_HV.theta_zero_114          1  T_AB.dc_flow_114          -750
    A_HV.theta_s0_t115     A_HV.theta_zero_115          1  T_AB.dc_flow_115          -750
    A_HV.theta_s0_t116     A_HV.theta_zero_116          1  T_AB.dc_flow_116          -750
    A_HV.theta_s0_t117     A_HV.theta_zero_117          1  T_AB.dc_flow_117          -750
    A_HV.theta_s0_t118     A_HV.theta_zero_118          1  T_AB.dc_flow_118          -750
    A_HV.theta_s0_t119     A_HV.theta_zero_119          1  T_AB.dc_flow_119          -750
    A_HV.theta_s0_t120     A_HV.theta_zero_120          1  T_AB.dc_flow_120          -750
    A_HV.theta_s0_t121     A_HV.theta_zero_121          1  T_AB.dc_flow_121          -750
    A_HV.theta_s0_t122     A_HV.theta_zero_122          1  T_AB.dc_flow_122          -750
    A_HV.theta_s0_t123     A_HV.theta_zero_123          1  T_AB.dc_flow_123          -750
    A_HV.theta_s0_t124     A_HV.theta_zero_124          1  T_AB.dc_flow_124          -750
    A_HV.theta_s0_t125     A_HV.theta_zero_125          1  T_AB.dc_flow_125          -750
    A_HV.theta_s0_t126     A_HV.theta_zero_126          1  T_AB.dc_flow_126          -750
    A_HV.theta_s0_t127     A_HV.theta_zero_127          1  T_AB.dc_flow_127          -750
    A_HV.theta_s0_t128     A_HV.theta_zero_128          1  T_AB.dc_flow_128          -750
    A_HV.theta_s0_t129     A_HV.theta_zero_129          1  T_AB.dc_flow_129          -750
    A_HV.theta_s0_t130     A_HV.theta_zero_130          1  T_AB.dc_flow_130          -750
    A_HV.theta_s0_t131     A_HV.theta_zero_131          1  T_AB.dc_flow_131          -750
    A_HV.theta_s0_t132     A_HV.theta_zero_132          1  T_AB.dc_flow_132          -750
    A_HV.theta_s0_t133     A_HV.theta_zero_133          1  T_AB.dc_flow_133          -750
    A_HV.theta_s0_t134     A_HV.theta_zero_134          1  T_AB.dc_flow_134          -750
    A_HV.theta_s0_t135     A_HV.theta_zero_135          1  T_AB.dc_flow_135          -750
    A_HV.theta_s0_t136     A_HV.theta_zero_136          1  T_AB.dc_flow_136          -750
    A_HV.theta_s0_t137     A_HV.theta_zero_137          1  T_AB.dc_flow_137          -750
    A_HV.theta_s0_t138     A_HV.theta_zero_138          1  T_AB.dc_flow_138          -750
    A_HV.theta_s0_t139     A_HV.theta_zero_139          1  T_AB.dc_flow_139          -750
    A_HV.theta_s0_t140     A_HV.theta_zero_140          1  T_AB.dc_flow_140          -750
    A_HV.theta_s0_t141     A_HV.theta_zero_141          1  T_AB.dc_flow_141          -750
    A_HV.theta_s0_t142     A_HV.theta_zero_142          1  T_AB.dc_flow_142          -750
    A_HV.theta_s0_t143     A_HV.theta_zero_143          1  T_AB.dc_flow_143          -750
    A_HV.theta_s0_t144     A_HV.theta_zero_144          1  T_AB.dc_flow_144          -750
    A_HV.theta_s0_t145     A_HV.theta_zero_145          1  T_AB.dc_flow_145          -750
    A_HV.theta_s0_t146     A_HV.theta_zero_146          1  T_AB.dc_flow_146          -750
    A_HV.theta_s0_t147     A_HV.theta_zero_147          1  T_AB.dc_flow_147          -750
    A_HV.theta_s0_t148     A_HV.theta_zero_148          1  T_AB.dc_flow_148          -750
    A_HV.theta_s0_t149     A_HV.theta_zero_149          1  T_AB.dc_flow_149          -750
    A_HV.theta_s0_t150     A_HV.theta_zero_150          1  T_AB.dc_flow_150          -750
    A_HV.theta_s0_t151     A_HV.theta_zero_151          1  T_AB.dc_flow_151          -750
    A_HV.theta_s0_t152     A_HV.theta_zero_152          1  T_AB.dc_flow_152          -750
    A_HV.theta_s0_t153     A_HV.theta_zero_153          1  T_AB.dc_flow_153          -750
    A_HV.theta_s0_t154     A_HV.theta_zero_154          1  T_AB.dc_flow_154          -750
    A_HV.theta_s0_t155     A_HV.theta_zero_155          1  T_AB.dc_flow_155          -750
    A_HV.theta_s0_t156     A_HV.theta_zero_156          1  T_AB.dc_flow_156          -750
    A_HV.theta_s0_t157     A_HV.theta_zero_157          1  T_AB.dc_flow_157          -750
    A_HV.theta_s0_t158     A_HV.theta_zero_158          1  T_AB.dc_flow_158          -750
    A_HV.theta_s0_t159     A_HV.theta_zero_159          1  T_AB.dc_flow_159          -750
    A_HV.theta_s0_t160     A_HV.theta_zero_160          1  T_AB.dc_flow_160          -750
    A_HV.theta_s0_t161     A_HV.theta_zero_161          1  T_AB.dc_flow_161          -750
    A_HV.theta_s0_t162     A_HV.theta_zero_162          1  T_AB.dc_flow_162          -750
    A_HV.theta_s0_t163     A_HV.theta_zero_163          1  T_AB.dc_flow_163          -750
    A_HV.theta_s0_t164     A_HV.theta_zero_164          1  T_AB.dc_flow_164          -750
    A_HV.theta_s0_t165     A_HV.theta_zero_165          1  T_AB.dc_flow_165          -750
    A_HV.theta_s0_t166     A_HV.theta_zero_166          1  T_AB.dc_flow_166          -750
    A_HV.theta_s0_t167     A_HV.theta_zero_167          1  T_AB.dc_flow_167          -750
    B_LV.theta_s0_t0       T_AB.dc_flow_0             750  BC.dc_flow_0           -121000
    B_LV.theta_s0_t1       T_AB.dc_flow_1             750  BC.dc_flow_1           -121000
    B_LV.theta_s0_t2       T_AB.dc_flow_2             750  BC.dc_flow_2           -121000
    B_LV.theta_s0_t3       T_AB.dc_flow_3             750  BC.dc_flow_3           -121000
    B_LV.theta_s0_t4       T_AB.dc_flow_4             750  BC.dc_flow_4           -121000
    B_LV.theta_s0_t5       T_AB.dc_flow_5             750  BC.dc_flow_5           -121000
    B_LV.theta_s0_t6       T_AB.dc_flow_6             750  BC.dc_flow_6           -121000
    B_LV.theta_s0_t7       T_AB.dc_flow_7             750  BC.dc_flow_7           -121000
    B_LV.theta_s0_t8       T_AB.dc_flow_8             750  BC.dc_flow_8           -121000
    B_LV.theta_s0_t9       T_AB.dc_flow_9             750  BC.dc_flow_9           -121000
    B_LV.theta_s0_t10      T_AB.dc_flow_10            750  BC.dc_flow_10          -121000
    B_LV.theta_s0_t11      T_AB.dc_flow_11            750  BC.dc_flow_11          -121000
    B_LV.theta_s0_t12      T_AB.dc_flow_12            750  BC.dc_flow_12          -121000
    B_LV.theta_s0_t13      T_AB.dc_flow_13            750  BC.dc_flow_13          -121000
    B_LV.theta_s0_t14      T_AB.dc_flow_14            750  BC.dc_flow_14          -121000
    B_LV.theta_s0_t15      T_AB.dc_flow_15            750  BC.dc_flow_15          -121000
    B_LV.theta_s0_t16      T_AB.dc_flow_16            750  BC.dc_flow_16          -121000
    B_LV.theta_s0_t17      T_AB.dc_flow_17            750  BC.dc_flow_17          -121000
    B_LV.theta_s0_t18      T_AB.dc_flow_18            750  BC.dc_flow_18          -121000
    B_LV.theta_s0_t19      T_AB.dc_flow_19            750  BC.dc_flow_19          -121000
    B_LV.theta_s0_t20      T_AB.dc_flow_20            750  BC.dc_flow_20          -121000
    B_LV.theta_s0_t21      T_AB.dc_flow_21            750  BC.dc_flow_21          -121000
    B_LV.theta_s0_t22      T_AB.dc_flow_22            750  BC.dc_flow_22          -121000
    B_LV.theta_s0_t23      T_AB.dc_flow_23            750  BC.dc_flow_23          -121000
    B_LV.theta_s0_t24      T_AB.dc_flow_24            750  BC.dc_flow_24          -121000
    B_LV.theta_s0_t25      T_AB.dc_flow_25            750  BC.dc_flow_25          -121000
    B_LV.theta_s0_t26      T_AB.dc_flow_26            750  BC.dc_flow_26          -121000
    B_LV.theta_s0_t27      T_AB.dc_flow_27            750  BC.dc_flow_27          -121000
    B_LV.theta_s0_t28      T_AB.dc_flow_28            750  BC.dc_flow_28          -121000
    B_LV.theta_s0_t29      T_AB.dc_flow_29            750  BC.dc_flow_29          -121000
    B_LV.theta_s0_t30      T_AB.dc_flow_30            750  BC.dc_flow_30          -121000
    B_LV.theta_s0_t31      T_AB.dc_flow_31            750  BC.dc_flow_31          -121000
    B_LV.theta_s0_t32      T_AB.dc_flow_32            750  BC.dc_flow_32          -121000
    B_LV.theta_s0_t33      T_AB.dc_flow_33            750  BC.dc_flow_33          -121000
    B_LV.theta_s0_t34      T_AB.dc_flow_34            750  BC.dc_flow_34          -121000
    B_LV.theta_s0_t35      T_AB.dc_flow_35            750  BC.dc_flow_35          -121000
    B_LV.theta_s0_t36      T_AB.dc_flow_36            750  BC.dc_flow_36          -121000
    B_LV.theta_s0_t37      T_AB.dc_flow_37            750  BC.dc_flow_37          -121000
    B_LV.theta_s0_t38      T_AB.dc_flow_38            750  BC.dc_flow_38          -121000
    B_LV.theta_s0_t39      T_AB.dc_flow_39            750  BC.dc_flow_39          -121000
    B_LV.theta_s0_t40      T_AB.dc_flow_40            750  BC.dc_flow_40          -121000
    B_LV.theta_s0_t41      T_AB.dc_flow_41            750  BC.dc_flow_41          -121000
    B_LV.theta_s0_t42      T_AB.dc_flow_42            750  BC.dc_flow_42          -121000
    B_LV.theta_s0_t43      T_AB.dc_flow_43            750  BC.dc_flow_43          -121000
    B_LV.theta_s0_t44      T_AB.dc_flow_44            750  BC.dc_flow_44          -121000
    B_LV.theta_s0_t45      T_AB.dc_flow_45            750  BC.dc_flow_45          -121000
    B_LV.theta_s0_t46      T_AB.dc_flow_46            750  BC.dc_flow_46          -121000
    B_LV.theta_s0_t47      T_AB.dc_flow_47            750  BC.dc_flow_47          -121000
    B_LV.theta_s0_t48      T_AB.dc_flow_48            750  BC.dc_flow_48          -121000
    B_LV.theta_s0_t49      T_AB.dc_flow_49            750  BC.dc_flow_49          -121000
    B_LV.theta_s0_t50      T_AB.dc_flow_50            750  BC.dc_flow_50          -121000
    B_LV.theta_s0_t51      T_AB.dc_flow_51            750  BC.dc_flow_51          -121000
    B_LV.theta_s0_t52      T_AB.dc_flow_52            750  BC.dc_flow_52          -121000
    B_LV.theta_s0_t53      T_AB.dc_flow_53            750  BC.dc_flow_53          -121000
    B_LV.theta_s0_t54      T_AB.dc_flow_54            750  BC.dc_flow_54          -121000
    B_LV.theta_s0_t55      T_AB.dc_flow_55            750  BC.dc_flow_55          -121000
    B_LV.theta_s0_t56      T_AB.dc_flow_56            750  BC.dc_flow_56          -121000
    B_LV.theta_s0_t57      T_AB.dc_flow_57            750  BC.dc_flow_57          -121000
    B_LV.theta_s0_t58      T_AB.dc_flow_58            750  BC.dc_flow_58          -121000
    B_LV.theta_s0_t59      T_AB.dc_flow_59            750  BC.dc_flow_59          -121000
    B_LV.theta_s0_t60      T_AB.dc_flow_60            750  BC.dc_flow_60          -121000
    B_LV.theta_s0_t61      T_AB.dc_flow_61            750  BC.dc_flow_61          -121000
    B_LV.theta_s0_t62      T_AB.dc_flow_62            750  BC.dc_flow_62          -121000
    B_LV.theta_s0_t63      T_AB.dc_flow_63            750  BC.dc_flow_63          -121000
    B_LV.theta_s0_t64      T_AB.dc_flow_64            750  BC.dc_flow_64          -121000
    B_LV.theta_s0_t65      T_AB.dc_flow_65            750  BC.dc_flow_65          -121000
    B_LV.theta_s0_t66      T_AB.dc_flow_66            750  BC.dc_flow_66          -121000
    B_LV.theta_s0_t67      T_AB.dc_flow_67            750  BC.dc_flow_67          -121000
    B_LV.theta_s0_t68      T_AB.dc_flow_68            750  BC.dc_flow_68          -121000
    B_LV.theta_s0_t69      T_AB.dc_flow_69            750  BC.dc_flow_69          -121000
    B_LV.theta_s0_t70      T_AB.dc_flow_70            750  BC.dc_flow_70          -121000
    B_LV.theta_s0_t71      T_AB.dc_flow_71            750  BC.dc_flow_71          -121000
    B_LV.theta_s0_t72      T_AB.dc_flow_72            750  BC.dc_flow_72          -121000
    B_LV.theta_s0_t73      T_AB.dc_flow_73            750  BC.dc_flow_73          -121000
    B_LV.theta_s0_t74      T_AB.dc_flow_74            750  BC.dc_flow_74          -121000
    B_LV.theta_s0_t75      T_AB.dc_flow_75            750  BC.dc_flow_75          -121000
    B_LV.theta_s0_t76      T_AB.dc_flow_76            750  BC.dc_flow_76          -121000
    B_LV.theta_s0_t77      T_AB.dc_flow_77            750  BC.dc_flow_77          -121000
    B_LV.theta_s0_t78      T_AB.dc_flow_78            750  BC.dc_flow_78          -121000
    B_LV.theta_s0_t79      T_AB.dc_flow_79            750  BC.dc_flow_79          -121000
    B_LV.theta_s0_t80      T_AB.dc_flow_80            750  BC.dc_flow_80          -121000
    B_LV.theta_s0_t81      T_AB.dc_flow_81            750  BC.dc_flow_81          -121000
    B_LV.theta_s0_t82      T_AB.dc_flow_82            750  BC.dc_flow_82          -121000
    B_LV.theta_s0_t83      T_AB.dc_flow_83            750  BC.dc_flow_83          -121000
    B_LV.theta_s0_t84      T_AB.dc_flow_84            750  BC.dc_flow_84          -121000
    B_LV.theta_s0_t85      T_AB.dc_flow_85            750  BC.dc_flow_85          -121000
    B_LV.theta_s0_t86      T_AB.dc_flow_86            750  BC.dc_flow_86          -121000
    B_LV.theta_s0_t87      T_AB.dc_flow_87            750  BC.dc_flow_87          -121000
    B_LV.theta_s0_t88      T_AB.dc_flow_88            750  BC.dc_flow_88          -121000
    B_LV.theta_s0_t89      T_AB.dc_flow_89            750  BC.dc_flow_89          -121000
    B_LV.theta_s0_t90      T_AB.dc_flow_90            750  BC.dc_flow_90          -121000
    B_LV.theta_s0_t91      T_AB.dc_flow_91            750  BC.dc_flow_91          -121000
    B_LV.theta_s0_t92      T_AB.dc_flow_92            750  BC.dc_flow_92          -121000
    B_LV.theta_s0_t93      T_AB.dc_flow_93            750  BC.dc_flow_93          -121000
    B_LV.theta_s0_t94      T_AB.dc_flow_94            750  BC.dc_flow_94          -121000
    B_LV.theta_s0_t95      T_AB.dc_flow_95            750  BC.dc_flow_95          -121000
    B_LV.theta_s0_t96      T_AB.dc_flow_96            750  BC.dc_flow_96          -121000
    B_LV.theta_s0_t97      T_AB.dc_flow_97            750  BC.dc_flow_97          -121000
    B_LV.theta_s0_t98      T_AB.dc_flow_98            750  BC.dc_flow_98          -121000
    B_LV.theta_s0_t99      T_AB.dc_flow_99            750  BC.dc_flow_99          -121000
    B_LV.theta_s0_t100     T_AB.dc_flow_100           750  BC.dc_flow_100         -121000
    B_LV.theta_s0_t101     T_AB.dc_flow_101           750  BC.dc_flow_101         -121000
    B_LV.theta_s0_t102     T_AB.dc_flow_102           750  BC.dc_flow_102         -121000
    B_LV.theta_s0_t103     T_AB.dc_flow_103           750  BC.dc_flow_103         -121000
    B_LV.theta_s0_t104     T_AB.dc_flow_104           750  BC.dc_flow_104         -121000
    B_LV.theta_s0_t105     T_AB.dc_flow_105           750  BC.dc_flow_105         -121000
    B_LV.theta_s0_t106     T_AB.dc_flow_106           750  BC.dc_flow_106         -121000
    B_LV.theta_s0_t107     T_AB.dc_flow_107           750  BC.dc_flow_107         -121000
    B_LV.theta_s0_t108     T_AB.dc_flow_108           750  BC.dc_flow_108         -121000
    B_LV.theta_s0_t109     T_AB.dc_flow_109           750  BC.dc_flow_109         -121000
    B_LV.theta_s0_t110     T_AB.dc_flow_110           750  BC.dc_flow_110         -121000
    B_LV.theta_s0_t111     T_AB.dc_flow_111           750  BC.dc_flow_111         -121000
    B_LV.theta_s0_t112     T_AB.dc_flow_112           750  BC.dc_flow_112         -121000
    B_LV.theta_s0_t113     T_AB.dc_flow_113           750  BC.dc_flow_113         -121000
    B_LV.theta_s0_t114     T_AB.dc_flow_114           750  BC.dc_flow_114         -121000
    B_LV.theta_s0_t115     T_AB.dc_flow_115           750  BC.dc_flow_115         -121000
    B_LV.theta_s0_t116     T_AB.dc_flow_116           750  BC.dc_flow_116         -121000
    B_LV.theta_s0_t117     T_AB.dc_flow_117           750  BC.dc_flow_117         -121000
    B_LV.theta_s0_t118     T_AB.dc_flow_118           750  BC.dc_flow_118         -121000
    B_LV.theta_s0_t119     T_AB.dc_flow_119           750  BC.dc_flow_119         -121000
    B_LV.theta_s0_t120     T_AB.dc_flow_120           750  BC.dc_flow_120         -121000
    B_LV.theta_s0_t121     T_AB.dc_flow_121           750  BC.dc_flow_121         -121000
    B_LV.theta_s0_t122     T_AB.dc_flow_122           750  BC.dc_flow_122         -121000
    B_LV.theta_s0_t123     T_AB.dc_flow_123           750  BC.dc_flow_123         -121000
    B_LV.theta_s0_t124     T_AB.dc_flow_124           750  BC.dc_flow_124         -121000
    B_LV.theta_s0_t125     T_AB.dc_flow_125           750  BC.dc_flow_125         -121000
    B_LV.theta_s0_t126     T_AB.dc_flow_126           750  BC.dc_flow_126         -121000
    B_LV.theta_s0_t127     T_AB.dc_flow_127           750  BC.dc_flow_127         -121000
    B_LV.theta_s0_t128     T_AB.dc_flow_128           750  BC.dc_flow_128         -121000
    B_LV.theta_s0_t129     T_AB.dc_flow_129           750  BC.dc_flow_129         -121000
    B_LV.theta_s0_t130     T_AB.dc_flow_130           750  BC.dc_flow_130         -121000
    B_LV.theta_s0_t131     T_AB.dc_flow_131           750  BC.dc_flow_131         -121000
    B_LV.theta_s0_t132     T_AB.dc_flow_132           750  BC.dc_flow_132         -121000
    B_LV.theta_s0_t133     T_AB.dc_flow_133           750  BC.dc_flow_133         -121000
    B_LV.theta_s0_t134     T_AB.dc_flow_134           750  BC.dc_flow_134         -121000
    B_LV.theta_s0_t135     T_AB.dc_flow_135           750  BC.dc_flow_135         -121000
    B_LV.theta_s0_t136     T_AB.dc_flow_136           750  BC.dc_flow_136         -121000
    B_LV.theta_s0_t137     T_AB.dc_flow_137           750  BC.dc_flow_137         -121000
    B_LV.theta_s0_t138     T_AB.dc_flow_138           750  BC.dc_flow_138         -121000
    B_LV.theta_s0_t139     T_AB.dc_flow_139           750  BC.dc_flow_139         -121000
    B_LV.theta_s0_t140     T_AB.dc_flow_140           750  BC.dc_flow_140         -121000
    B_LV.theta_s0_t141     T_AB.dc_flow_141           750  BC.dc_flow_141         -121000
    B_LV.theta_s0_t142     T_AB.dc_flow_142           750  BC.dc_flow_142         -121000
    B_LV.theta_s0_t143     T_AB.dc_flow_143           750  BC.dc_flow_143         -121000
    B_LV.theta_s0_t144     T_AB.dc_flow_144           750  BC.dc_flow_144         -121000
    B_LV.theta_s0_t145     T_AB.dc_flow_145           750  BC.dc_flow_145         -121000
    B_LV.theta_s0_t146     T_AB.dc_flow_146           750  BC.dc_flow_146         -121000
    B_LV.theta_s0_t147     T_AB.dc_flow_147           750  BC.dc_flow_147         -121000
    B_LV.theta_s0_t148     T_AB.dc_flow_148           750  BC.dc_flow_148         -121000
    B_LV.theta_s0_t149     T_AB.dc_flow_149           750  BC.dc_flow_149         -121000
    B_LV.theta_s0_t150     T_AB.dc_flow_150           750  BC.dc_flow_150         -121000
    B_LV.theta_s0_t151     T_AB.dc_flow_151           750  BC.dc_flow_151         -121000
    B_LV.theta_s0_t152     T_AB.dc_flow_152           750  BC.dc_flow_152         -121000
    B_LV.theta_s0_t153     T_AB.dc_flow_153           750  BC.dc_flow_153         -121000
    B_LV.theta_s0_t154     T_AB.dc_flow_154           750  BC.dc_flow_154         -121000
    B_LV.theta_s0_t155     T_AB.dc_flow_155           750  BC.dc_flow_155         -121000
    B_LV.theta_s0_t156     T_AB.dc_flow_156           750  BC.dc_flow_156         -121000
    B_LV.theta_s0_t157     T_AB.dc_flow_157           750  BC.dc_flow_157         -121000
    B_LV.theta_s0_t158     T_AB.dc_flow_158           750  BC.dc_flow_158         -121000
    B_LV.theta_s0_t159     T_AB.dc_flow_159           750  BC.dc_flow_159         -121000
    B_LV.theta_s0_t160     T_AB.dc_flow_160           750  BC.dc_flow_160         -121000
    B_LV.theta_s0_t161     T_AB.dc_flow_161           750  BC.dc_flow_161         -121000
    B_LV.theta_s0_t162     T_AB.dc_flow_162           750  BC.dc_flow_162         -121000
    B_LV.theta_s0_t163     T_AB.dc_flow_163           750  BC.dc_flow_163         -121000
    B_LV.theta_s0_t164     T_AB.dc_flow_164           750  BC.dc_flow_164         -121000
    B_LV.theta_s0_t165     T_AB.dc_flow_165           750  BC.dc_flow_165         -121000
    B_LV.theta_s0_t166     T_AB.dc_flow_166           750  BC.dc_flow_166         -121000
    B_LV.theta_s0_t167     T_AB.dc_flow_167           750  BC.dc_flow_167         -121000
    C_LV.theta_s0_t0       BC.dc_flow_0            121000
    C_LV.theta_s0_t1       BC.dc_flow_1            121000
    C_LV.theta_s0_t2       BC.dc_flow_2            121000
    C_LV.theta_s0_t3       BC.dc_flow_3            121000
    C_LV.theta_s0_t4       BC.dc_flow_4            121000
    C_LV.theta_s0_t5       BC.dc_flow_5            121000
    C_LV.theta_s0_t6       BC.dc_flow_6            121000
    C_LV.theta_s0_t7       BC.dc_flow_7            121000
    C_LV.theta_s0_t8       BC.dc_flow_8            121000
    C_LV.theta_s0_t9       BC.dc_flow_9            121000
    C_LV.theta_s0_t10      BC.dc_flow_10           121000
    C_LV.theta_s0_t11      BC.dc_flow_11           121000
    C_LV.theta_s0_t12      BC.dc_flow_12           121000
    C_LV.theta_s0_t13      BC.dc_flow_13           121000
    C_LV.theta_s0_t14      BC.dc_flow_14           121000
    C_LV.theta_s0_t15      BC.dc_flow_15           121000
    C_LV.theta_s0_t16      BC.dc_flow_16           121000
    C_LV.theta_s0_t17      BC.dc_flow_17           121000
    C_LV.theta_s0_t18      BC.dc_flow_18           121000
    C_LV.theta_s0_t19      BC.dc_flow_19           121000
    C_LV.theta_s0_t20      BC.dc_flow_20           121000
    C_LV.theta_s0_t21      BC.dc_flow_21           121000
    C_LV.theta_s0_t22      BC.dc_flow_22           121000
    C_LV.theta_s0_t23      BC.dc_flow_23           121000
    C_LV.theta_s0_t24      BC.dc_flow_24           121000
    C_LV.theta_s0_t25      BC.dc_flow_25           121000
    C_LV.theta_s0_t26      BC.dc_flow_26           121000
    C_LV.theta_s0_t27      BC.dc_flow_27           121000
    C_LV.theta_s0_t28      BC.dc_flow_28           121000
    C_LV.theta_s0_t29      BC.dc_flow_29           121000
    C_LV.theta_s0_t30      BC.dc_flow_30           121000
    C_LV.theta_s0_t31      BC.dc_flow_31           121000
    C_LV.theta_s0_t32      BC.dc_flow_32           121000
    C_LV.theta_s0_t33      BC.dc_flow_33           121000
    C_LV.theta_s0_t34      BC.dc_flow_34           121000
    C_LV.theta_s0_t35      BC.dc_flow_35           121000
    C_LV.theta_s0_t36      BC.dc_flow_36           121000
    C_LV.theta_s0_t37      BC.dc_flow_37           121000
    C_LV.theta_s0_t38      BC.dc_flow_38           121000
    C_LV.theta_s0_t39      BC.dc_flow_39           121000
    C_LV.theta_s0_t40      BC.dc_flow_40           121000
    C_LV.theta_s0_t41      BC.dc_flow_41           121000
    C_LV.theta_s0_t42      BC.dc_flow_42           121000
    C_LV.theta_s0_t43      BC.dc_flow_43           121000
    C_LV.theta_s0_t44      BC.dc_flow_44           121000
    C_LV.theta_s0_t45      BC.dc_flow_45           121000
    C_LV.theta_s0_t46      BC.dc_flow_46           121000
    C_LV.theta_s0_t47      BC.dc_flow_47           121000
    C_LV.theta_s0_t48      BC.dc_flow_48           121000
    C_LV.theta_s0_t49      BC.dc_flow_49           121000
    C_LV.theta_s0_t50      BC.dc_flow_50           121000
    C_LV.theta_s0_t51      BC.dc_flow_51           121000
    C_LV.theta_s0_t52      BC.dc_flow_52           121000
    C_LV.theta_s0_t53      BC.dc_flow_53           121000
    C_LV.theta_s0_t54      BC.dc_flow_54           121000
    C_LV.theta_s0_t55      BC.dc_flow_55           121000
    C_LV.theta_s0_t56      BC.dc_flow_56           121000
    C_LV.theta_s0_t57      BC.dc_flow_57           121000
    C_LV.theta_s0_t58      BC.dc_flow_58           121000
    C_LV.theta_s0_t59      BC.dc_flow_59           121000
    C_LV.theta_s0_t60      BC.dc_flow_60           121000
    C_LV.theta_s0_t61      BC.dc_flow_61           121000
    C_LV.theta_s0_t62      BC.dc_flow_62           121000
    C_LV.theta_s0_t63      BC.dc_flow_63           121000
    C_LV.theta_s0_t64      BC.dc_flow_64           121000
    C_LV.theta_s0_t65      BC.dc_flow_65           121000
    C_LV.theta_s0_t66      BC.dc_flow_66           121000
    C_LV.theta_s0_t67      BC.dc_flow_67           121000
    C_LV.theta_s0_t68      BC.dc_flow_68           121000
    C_LV.theta_s0_t69      BC.dc_flow_69           121000
    C_LV.theta_s0_t70      BC.dc_flow_70           121000
    C_LV.theta_s0_t71      BC.dc_flow_71           121000
    C_LV.theta_s0_t72      BC.dc_flow_72           121000
    C_LV.theta_s0_t73      BC.dc_flow_73           121000
    C_LV.theta_s0_t74      BC.dc_flow_74           121000
    C_LV.theta_s0_t75      BC.dc_flow_75           121000
    C_LV.theta_s0_t76      BC.dc_flow_76           121000
    C_LV.theta_s0_t77      BC.dc_flow_77           121000
    C_LV.theta_s0_t78      BC.dc_flow_78           121000
    C_LV.theta_s0_t79      BC.dc_flow_79           121000
    C_LV.theta_s0_t80      BC.dc_flow_80           121000
    C_LV.theta_s0_t81      BC.dc_flow_81           121000
    C_LV.theta_s0_t82      BC.dc_flow_82           121000
    C_LV.theta_s0_t83      BC.dc_flow_83           121000
    C_LV.theta_s0_t84      BC.dc_flow_84           121000
    C_LV.theta_s0_t85      BC.dc_flow_85           121000
    C_LV.theta_s0_t86      BC.dc_flow_86           121000
    C_LV.theta_s0_t87      BC.dc_flow_87           121000
    C_LV.theta_s0_t88      BC.dc_flow_88           121000
    C_LV.theta_s0_t89      BC.dc_flow_89           121000
    C_LV.theta_s0_t90      BC.dc_flow_90           121000
    C_LV.theta_s0_t91      BC.dc_flow_91           121000
    C_LV.theta_s0_t92      BC.dc_flow_92           121000
    C_LV.theta_s0_t93      BC.dc_flow_93           121000
    C_LV.theta_s0_t94      BC.dc_flow_94           121000
    C_LV.theta_s0_t95      BC.dc_flow_95           121000
    C_LV.theta_s0_t96      BC.dc_flow_96           121000
    C_LV.theta_s0_t97      BC.dc_flow_97           121000
    C_LV.theta_s0_t98      BC.dc_flow_98           121000
    C_LV.theta_s0_t99      BC.dc_flow_99           121000
    C_LV.theta_s0_t100     BC.dc_flow_100          121000
    C_LV.theta_s0_t101     BC.dc_flow_101          121000
    C_LV.theta_s0_t102     BC.dc_flow_102          121000
    C_LV.theta_s0_t103     BC.dc_flow_103          121000
    C_LV.theta_s0_t104     BC.dc_flow_104          121000
    C_LV.theta_s0_t105     BC.dc_flow_105          121000
    C_LV.theta_s0_t106     BC.dc_flow_106          121000
    C_LV.theta_s0_t107     BC.dc_flow_107          121000
    C_LV.theta_s0_t108     BC.dc_flow_108          121000
    C_LV.theta_s0_t109     BC.dc_flow_109          121000
    C_LV.theta_s0_t110     BC.dc_flow_110          121000
    C_LV.theta_s0_t111     BC.dc_flow_111          121000
    C_LV.theta_s0_t112     BC.dc_flow_112          121000
    C_LV.theta_s0_t113     BC.dc_flow_113          121000
    C_LV.theta_s0_t114     BC.dc_flow_114          121000
    C_LV.theta_s0_t115     BC.dc_flow_115          121000
    C_LV.theta_s0_t116     BC.dc_flow_116          121000
    C_LV.theta_s0_t117     BC.dc_flow_117          121000
    C_LV.theta_s0_t118     BC.dc_flow_118          121000
    C_LV.theta_s0_t119     BC.dc_flow_119          121000
    C_LV.theta_s0_t120     BC.dc_flow_120          121000
    C_LV.theta_s0_t121     BC.dc_flow_121          121000
    C_LV.theta_s0_t122     BC.dc_flow_122          121000
    C_LV.theta_s0_t123     BC.dc_flow_123          121000
    C_LV.theta_s0_t124     BC.dc_flow_124          121000
    C_LV.theta_s0_t125     BC.dc_flow_125          121000
    C_LV.theta_s0_t126     BC.dc_flow_126          121000
    C_LV.theta_s0_t127     BC.dc_flow_127          121000
    C_LV.theta_s0_t128     BC.dc_flow_128          121000
    C_LV.theta_s0_t129     BC.dc_flow_129          121000
    C_LV.theta_s0_t130     BC.dc_flow_130          121000
    C_LV.theta_s0_t131     BC.dc_flow_131          121000
    C_LV.theta_s0_t132     BC.dc_flow_132          121000
    C_LV.theta_s0_t133     BC.dc_flow_133          121000
    C_LV.theta_s0_t134     BC.dc_flow_134          121000
    C_LV.theta_s0_t135     BC.dc_flow_135          121000
    C_LV.theta_s0_t136     BC.dc_flow_136          121000
    C_LV.theta_s0_t137     BC.dc_flow_137          121000
    C_LV.theta_s0_t138     BC.dc_flow_138          121000
    C_LV.theta_s0_t139     BC.dc_flow_139          121000
    C_LV.theta_s0_t140     BC.dc_flow_140          121000
    C_LV.theta_s0_t141     BC.dc_flow_141          121000
    C_LV.theta_s0_t142     BC.dc_flow_142          121000
    C_LV.theta_s0_t143     BC.dc_flow_143          121000
    C_LV.theta_s0_t144     BC.dc_flow_144          121000
    C_LV.theta_s0_t145     BC.dc_flow_145          121000
    C_LV.theta_s0_t146     BC.dc_flow_146          121000
    C_LV.theta_s0_t147     BC.dc_flow_147          121000
    C_LV.theta_s0_t148     BC.dc_flow_148          121000
    C_LV.theta_s0_t149     BC.dc_flow_149          121000
    C_LV.theta_s0_t150     BC.dc_flow_150          121000
    C_LV.theta_s0_t151     BC.dc_flow_151          121000
    C_LV.theta_s0_t152     BC.dc_flow_152          121000
    C_LV.theta_s0_t153     BC.dc_flow_153          121000
    C_LV.theta_s0_t154     BC.dc_flow_154          121000
    C_LV.theta_s0_t155     BC.dc_flow_155          121000
    C_LV.theta_s0_t156     BC.dc_flow_156          121000
    C_LV.theta_s0_t157     BC.dc_flow_157          121000
    C_LV.theta_s0_t158     BC.dc_flow_158          121000
    C_LV.theta_s0_t159     BC.dc_flow_159          121000
    C_LV.theta_s0_t160     BC.dc_flow_160          121000
    C_LV.theta_s0_t161     BC.dc_flow_161          121000
    C_LV.theta_s0_t162     BC.dc_flow_162          121000
    C_LV.theta_s0_t163     BC.dc_flow_163          121000
    C_LV.theta_s0_t164     BC.dc_flow_164          121000
    C_LV.theta_s0_t165     BC.dc_flow_165          121000
    C_LV.theta_s0_t166     BC.dc_flow_166          121000
    C_LV.theta_s0_t167     BC.dc_flow_167          121000
    G_A.p_nom              G_A.max_dispatch_0          -1  G_A.max_dispatch_1          -1
    G_A.p_nom              G_A.max_dispatch_2          -1  G_A.max_dispatch_3          -1
    G_A.p_nom              G_A.max_dispatch_4          -1  G_A.max_dispatch_5          -1
    G_A.p_nom              G_A.max_dispatch_6          -1  G_A.max_dispatch_7          -1
    G_A.p_nom              G_A.max_dispatch_8          -1  G_A.max_dispatch_9          -1
    G_A.p_nom              G_A.max_dispatch_10         -1  G_A.max_dispatch_11         -1
    G_A.p_nom              G_A.max_dispatch_12         -1  G_A.max_dispatch_13         -1
    G_A.p_nom              G_A.max_dispatch_14         -1  G_A.max_dispatch_15         -1
    G_A.p_nom              G_A.max_dispatch_16         -1  G_A.max_dispatch_17         -1
    G_A.p_nom              G_A.max_dispatch_18         -1  G_A.max_dispatch_19         -1
    G_A.p_nom              G_A.max_dispatch_20         -1  G_A.max_dispatch_21         -1
    G_A.p_nom              G_A.max_dispatch_22         -1  G_A.max_dispatch_23         -1
    G_A.p_nom              G_A.max_dispatch_24         -1  G_A.max_dispatch_25         -1
    G_A.p_nom              G_A.max_dispatch_26         -1  G_A.max_dispatch_27         -1
    G_A.p_nom              G_A.max_dispatch_28         -1  G_A.max_dispatch_29         -1
    G_A.p_nom              G_A.max_dispatch_30         -1  G_A.max_dispatch_31         -1
    G_A.p_nom              G_A.max_dispatch_32         -1  G_A.max_dispatch_33         -1
    G_A.p_nom              G_A.max_dispatch_34         -1  G_A.max_dispatch_35         -1
    G_A.p_nom              G_A.max_dispatch_36         -1  G_A.max_dispatch_37         -1
    G_A.p_nom              G_A.max_dispatch_38         -1  G_A.max_dispatch_39         -1
    G_A.p_nom              G_A.max_dispatch_40         -1  G_A.max_dispatch_41         -1
    G_A.p_nom              G_A.max_dispatch_42         -1  G_A.max_dispatch_43         -1
    G_A.p_nom              G_A.max_dispatch_44         -1  G_A.max_dispatch_45         -1
    G_A.p_nom              G_A.max_dispatch_46         -1  G_A.max_dispatch_47         -1
    G_A.p_nom              G_A.max_dispatch_48         -1  G_A.max_dispatch_49         -1
    G_A.p_nom              G_A.max_dispatch_50         -1  G_A.max_dispatch_51         -1
    G_A.p_nom              G_A.max_dispatch_52         -1  G_A.max_dispatch_53         -1
    G_A.p_nom              G_A.max_dispatch_54         -1  G_A.max_dispatch_55         -1
    G_A.p_nom              G_A.max_dispatch_56         -1  G_A.max_dispatch_57         -1
    G_A.p_nom              G_A.max_dispatch_58         -1  G_A.max_dispatch_59         -1
    G_A.p_nom              G_A.max_dispatch_60         -1  G_A.max_dispatch_61         -1
    G_A.p_nom              G_A.max_dispatch_62         -1  G_A.max_dispatch_63         -1
    G_A.p_nom              G_A.max_dispatch_64         -1  G_A.max_dispatch_65         -1
    G_A.p_nom              G_A.max_dispatch_66         -1  G_A.max_dispatch_67         -1
    G_A.p_nom              G_A.max_dispatch_68         -1  G_A.max_dispatch_69         -1
    G_A.p_nom              G_A.max_dispatch_70         -1  G_A.max_dispatch_71         -1
    G_A.p_nom              G_A.max_dispatch_72         -1  G_A.max_dispatch_73         -1
    G_A.p_nom              G_A.max_dispatch_74         -1  G_A.max_dispatch_75         -1
    G_A.p_nom              G_A.max_dispatch_76         -1  G_A.max_dispatch_77         -1
    G_A.p_nom              G_A.max_dispatch_78         -1  G_A.max_dispatch_79         -1
    G_A.p_nom              G_A.max_dispatch_80         -1  G_A.max_dispatch_81         -1
    G_A.p_nom              G_A.max_dispatch_82         -1  G_A.max_dispatch_83         -1
    G_A.p_nom              G_A.max_dispatch_84         -1  G_A.max_dispatch_85         -1
    G_A.p_nom              G_A.max_dispatch_86         -1  G_A.max_dispatch_87         -1
    G_A.p_nom              G_A.max_dispatch_88         -1  G_A.max_dispatch_89         -1
    G_A.p_nom              G_A.max_dispatch_90         -1  G_A.max_dispatch_91         -1
    G_A.p_nom              G_A.max_dispatch_92         -1  G_A.max_dispatch_93         -1
    G_A.p_nom              G_A.max_dispatch_94         -1  G_A.max_dispatch_95         -1
    G_A.p_nom              G_A.max_dispatch_96         -1  G_A.max_dispatch_97         -1
    G_A.p_nom              G_A.max_dispatch_98         -1  G_A.max_dispatch_99         -1
    G_A.p_nom              G_A.max_dispatch_100        -1  G_A.max_dispatch_101        -1
    G_A.p_nom              G_A.max_dispatch_102        -1  G_A.max_dispatch_103        -1
    G_A.p_nom              G_A.max_dispatch_104        -1  G_A.max_dispatch_105        -1
    G_A.p_nom              G_A.max_dispatch_106        -1  G_A.max_dispatch_107        -1
    G_A.p_nom              G_A.max_dispatch_108        -1  G_A.max_dispatch_109        -1
    G_A.p_nom              G_A.max_dispatch_110        -1  G_A.max_dispatch_111        -1
    G_A.p_nom              G_A.max_dispatch_112        -1  G_A.max_dispatch_113        -1
    G_A.p_nom              G_A.max_dispatch_114        -1  G_A.max_dispatch_115        -1
    G_A.p_nom              G_A.max_dispatch_116        -1  G_A.max_dispatch_117        -1
    G_A.p_nom              G_A.max_dispatch_118        -1  G_A.max_dispatch_119        -1
    G_A.p_nom              G_A.max_dispatch_120        -1  G_A.max_dispatch_121        -1
    G_A.p_nom              G_A.max_dispatch_122        -1  G_A.max_dispatch_123        -1
    G_A.p_nom              G_A.max_dispatch_124        -1  G_A.max_dispatch_125        -1
    G_A.p_nom              G_A.max_dispatch_126        -1  G_A.max_dispatch_127        -1
    G_A.p_nom              G_A.max_dispatch_128        -1  G_A.max_dispatch_129        -1
    G_A.p_nom              G_A.max_dispatch_130        -1  G_A.max_dispatch_131        -1
    G_A.p_nom              G_A.max_dispatch_132        -1  G_A.max_dispatch_133        -1
    G_A.p_nom              G_A.max_dispatch_134        -1  G_A.max_dispatch_135        -1
    G_A.p_nom              G_A.max_dispatch_136        -1  G_A.max_dispatch_137        -1
    G_A.p_nom              G_A.max_dispatch_138        -1  G_A.max_dispatch_139        -1
    G_A.p_nom              G_A.max_dispatch_140        -1  G_A.max_dispatch_141        -1
    G_A.p_nom              G_A.max_dispatch_142        -1  G_A.max_dispatch_143        -1
    G_A.p_nom              G_A.max_dispatch_144        -1  G_A.max_dispatch_145        -1
    G_A.p_nom              G_A.max_dispatch_146        -1  G_A.max_dispatch_147        -1
    G_A.p_nom              G_A.max_dispatch_148        -1  G_A.max_dispatch_149        -1
    G_A.p_nom              G_A.max_dispatch_150        -1  G_A.max_dispatch_151        -1
    G_A.p_nom              G_A.max_dispatch_152        -1  G_A.max_dispatch_153        -1
    G_A.p_nom              G_A.max_dispatch_154        -1  G_A.max_dispatch_155        -1
    G_A.p_nom              G_A.max_dispatch_156        -1  G_A.max_dispatch_157        -1
    G_A.p_nom              G_A.max_dispatch_158        -1  G_A.max_dispatch_159        -1
    G_A.p_nom              G_A.max_dispatch_160        -1  G_A.max_dispatch_161        -1
    G_A.p_nom              G_A.max_dispatch_162        -1  G_A.max_dispatch_163        -1
    G_A.p_nom              G_A.max_dispatch_164        -1  G_A.max_dispatch_165        -1
    G_A.p_nom              G_A.max_dispatch_166        -1  G_A.max_dispatch_167        -1
    G_A.p_s0_t0            COST                        10  A_HV.p_balance_0             1
    G_A.p_s0_t0            G_A.min_dispatch_0           1  G_A.max_dispatch_0           1
    G_A.p_s0_t0            G_A.min_production           1  G_A.max_production           1
    G_A.p_s0_t1            COST                        10  A_HV.p_balance_1             1
    G_A.p_s0_t1            G_A.min_dispatch_1           1  G_A.max_dispatch_1           1
    G_A.p_s0_t1            G_A.min_production           1  G_A.max_production           1
    G_A.p_s0_t2            COST                        10  A_HV.p_balance_2             1
    G_A.p_s0_t2            G_A.min_dispatch_2           1  G_A.max_dispatch_2           1
    G_A.p_s0_t2            G_A.min_production           1  G_A.max_production           1
    G_A.p_s0_t3            COST                        10  A_HV.p_balance_3             1
    G_A.p_s0_t3            G_A.min_dispatch_3           1  G_A.max_dispatch_3           1
    G_A.p_s0_t3            G_A.min_production           1  G_A.max_production           1
    G_A.p_s0_t4            COST                        10  A_HV.p_balance_4             1
    G_A.p_s0_t4            G_A.min_dispatch_4           1  G_A.max_dispatch_4           1
    G_A.p_s0_t4            G_A.min_production           1  G_A.max_production           1
    G_A.p_s0_t5            COST                        10  A_HV.p_balance_5             1
    G_A.p_s0_t5            G_A.min_dispatch_5           1  G_A.max_dispatch_5           1
    G_A.p_s0_t5            G_A.min_production           1  G_A.max_production           1
    G_A.p_s0_t6            COST                        10  A_HV.p_balance_6             1
    G_A.p_s0_t6            G_A.min_dispatch_6           1  G_A.max_dispatch_6           1
    G_A.p_s0_t6            G_A.min_production           1  G_A.max_production           1
    G_A.p_s0_t7            COST                        10  A_HV.p_balance_7             1
    G_A.p_s0_t7            G_A.min_dispatch_7           1  G_A.max_dispatch_7           1
    G_A.p_s0_t7            G_A.min_production           1  G_A.max_production           1
    G_A.p_s0_t8            COST                        10  A_HV.p_balance_8             1
    G_A.p_s0_t8            G_A.min_dispatch_8           1  G_A.max_dispatch_8           1
    G_A.p_s0_t8            G_A.min_production           1  G_A.max_production           1
    G_A.p_s0_t9            COST                        10  A_HV.p_balance_9             1
    G_A.p_s0_t9            G_A.min_dispatch_9           1  G_A.max_dispatch_9           1
    G_A.p_s0_t9            G_A.min_production           1  G_A.max_production           1
    G_A.p_s0_t10           COST                        10  A_HV.p_balance_10            1
    G_A.p_s0_t10           G_A.min_dispatch_10          1  G_A.max_dispatch_10          1
    G_A.p_s0_t10           G_A.min_production           1  G_A.max_production           1
    G_A.p_s0_t11           COST                        10  A_HV.p_balance_11            1
    G_A.p_s0_t11           G_A.min_dispatch_11          1  G_A.max_dispatch_11          1
    G_A.p_s0_t11           G_A.min_production           1  G_A.max_production           1
    G_A.p_s0_t12           COST                        10  A_HV.p_balance_12            1
    G_A.p_s0_t12           G_A.min_dispatch_12          1  G_A.max_dispatch_12          1
    G_A.p_s0_t12           G_A.min_production           1  G_A.max_production           1
    G_A.p_s0_t13           COST                        10  A_HV.p_balance_13            1
    G_A.p_s0_t13           G_A.min_dispatch_13          1  G_A.max_dispatch_13          1
    G_A.p_s0_t13           G_A.min_production           1  G_A.max_production           1
    G_A.p_s0_t14           COST                        10  A_HV.p_balance_14            1
    G_A.p_s0_t14           G_A.min_dispatch_14          1  G_A.max_dispatch_14          1
    G_A.p_s0_t14           G_A.min_production           1  G_A.max_production           1
    G_A.p_s0_t15           COST                        10  A_HV.p_balance_15            1
    G_A.p_s0_t15           G_A.min_dispatch_15          1  G_A.max_dispatch_15          1
    G_A.p_s0_t15           G_A.min_production           1  G_A.max_production           1
    G_A.p_s0_t16           COST                        10  A_HV.p_balance_16            1
    G_A.p_s0_t16           G_A.min_dispatch_16          1  G_A.max_dispatch_16          1
    G_A.p_s0_t16           G_A.min_production           1  G_A.max_production           1
    G_A.p_s0_t17           COST                        10  A_HV.p_balance_17            1
    G_A.p_s0_t17           G_A.min_dispatch_17          1  G_A.max_dispatch_17          1
    G_A.p_s0_t17           G_A.min_production           1  G_A.max_production           1
    G_A.p_s0_t18           COST                        10  A_HV.p_balance_18            1
    G_A.p_s0_t18           G_A.min_dispatch_18          1  G_A.max_dispatch_18          1
    G_A.p_s0_t18           G_A.min_production           1  G_A.max_production           1
    G_A.p_s0_t19           COST                        10  A_HV.p_balance_19            1
    G_A.p_s0_t19           G_A.min_dispatch_19          1  G_A.max_dispatch_19          1
    G_A.p_s0_t19           G_A.min_production           1  G_A.max_production           1
    G_A.p_s0_t20           COST                        10  A_HV.p_balance_20            1
    G_A.p_s0_t20           G_A.min_dispatch_20          1  G_A.max_dispatch_20          1
    G_A.p_s0_t20           G_A.min_production           1  G_A.max_production           1
    G_A.p_s0_t21           COST                        10  A_HV.p_balance_21            1
    G_A.p_s0_t21           G_A.min_dispatch_21          1  G_A.max_dispatch_21          1
    G_A.p_s0_t21           G_A.min_production           1  G_A.max_production           1
    G_A.p_s0_t22           COST                        10  A_HV.p_balance_22            1
    G_A.p_s0_t22           G_A.min_dispatch_22          1  G_A.max_dispatch_22          1
    G_A.p_s0_t22           G_A.min_production           1  G_A.max_production           1
    G_A.p_s0_t23           COST                        10  A_HV.p_balance_23            1
    G_A.p_s0_t23           G_A.min_dispatch_23          1  G_A.max_dispatch_23          1
    G_A.p_s0_t23           G_A.min_production           1  G_A.max_production           1
    G_A.p_s0_t24           COST                        10  A_HV.p_balance_24            1
    G_A.p_s0_t24           G_A.min_dispatch_24          1  G_A.max_dispatch_24          1
    G_A.p_s0_t24           G_A.min_production           1  G_A.max_production           1
    G_A.p_s0_t25           COST                        10  A_HV.p_balance_25            1
    G_A.p_s0_t25           G_A.min_dispatch_25          1  G_A.max_dispatch_25          1
    G_A.p_s0_t25           G_A.min_production           1  G_A.max_production           1
    G_A.p_s0_t26           COST                        10  A_HV.p_balance_26            1
    G_A.p_s0_t26           G_A.min_dispatch_26          1  G_A.max_dispatch_26          1
    G_A.p_s0_t26           G_A.min_production           1  G_A.max_production           1
    G_A.p_s0_t27           COST                        10  A_HV.p_balance_27            1
    G_A.p_s0_t27           G_A.min_dispatch_27          1  G_A.max_dispatch_27          1
    G_A.p_s0_t27           G_A.min_production           1  G_A.max_production           1
    G_A.p_s0_t28           COST                        10  A_HV.p_balance_28            1
    G_A.p_s0_t28           G_A.min_dispatch_28          1  G_A.max_dispatch_28          1
    G_A.p_s0_t28           G_A.min_production           1  G_A.max_production           1
    G_A.p_s0_t29           COST                        10  A_HV.p_balance_29            1
    G_A.p_s0_t29           G_A.min_dispatch_29          1  G_A.max_dispatch_29          1
    G_A.p_s0_t29           G_A.min_production           1  G_A.max_production           1
    G_A.p_s0_t30           COST                        10  A_HV.p_balance_30            1
    G_A.p_s0_t30           G_A.min_dispatch_30          1  G_A.max_dispatch_30          1
    G_A.p_s0_t30           G_A.min_production           1  G_A.max_production           1
    G_A.p_s0_t31           COST                        10  A_HV.p_balance_31            1
    G_A.p_s0_t31           G_A.min_dispatch_31          1  G_A.max_dispatch_31          1
    G_A.p_s0_t31           G_A.min_production           1  G_A.max_production           1
    G_A.p_s0_t32           COST                        10  A_HV.p_balance_32            1
    G_A.p_s0_t32           G_A.min_dispatch_32          1  G_A.max_dispatch_32          1
    G_A.p_s0_t32           G_A.min_production           1  G_A.max_production           1
    G_A.p_s0_t33           COST                        10  A_HV.p_balance_33            1
    G_A.p_s0_t33           G_A.min_dispatch_33          1  G_A.max_dispatch_33          1
    G_A.p_s0_t33           G_A.min_production           1  G_A.max_production           1
    G_A.p_s0_t34           COST                        10  A_HV.p_balance_34            1
    G_A.p_s0_t34           G_A.min_dispatch_34          1  G_A.max_dispatch_34          1
    G_A.p_s0_t34           G_A.min_production           1  G_A.max_production           1
    G_A.p_s0_t35           COST                        10  A_HV.p_balance_35            1
    G_A.p_s0_t35           G_A.min_dispatch_35          1  G_A.max_dispatch_35          1
    G_A.p_s0_t35           G_A.min_production           1  G_A.max_production           1
    G_A.p_s0_t36           COST                        10  A_HV.p_balance_36            1
    G_A.p_s0_t36           G_A.min_dispatch_36          1  G_A.max_dispatch_36          1
    G_A.p_s0_t36           G_A.min_production           1  G_A.max_production           1
    G_A.p_s0_t37           COST                        10  A_HV.p_balance_37            1
    G_A.p_s0_t37           G_A.min_dispatch_37          1  G_A.max_dispatch_37          1
    G_A.p_s0_t37           G_A.min_production           1  G_A.max_production           1
    G_A.p_s0_t38           COST                        10  A_HV.p_balance_38            1
    G_A.p_s0_t38           G_A.min_dispatch_38          1  G_A.max_dispatch_38          1
    G_A.p_s0_t38           G_A.min_production           1  G_A.max_production           1
    G_A.p_s0_t39           COST                        10  A_HV.p_balance_39            1
    G_A.p_s0_t39           G_A.min_dispatch_39          1  G_A.max_dispatch_39          1
    G_A.p_s0_t39           G_A.min_production           1  G_A.max_production           1
    G_A.p_s0_t40           COST                        10  A_HV.p_balance_40            1
    G_A.p_s0_t40           G_A.min_dispatch_40          1  G_A.max_dispatch_40          1
    G_A.p_s0_t40           G_A.min_production           1  G_A.max_production           1
    G_A.p_s0_t41           COST                        10  A_HV.p_balance_41            1
    G_A.p_s0_t41           G_A.min_dispatch_41          1  G_A.max_dispatch_41          1
    G_A.p_s0_t41           G_A.min_production           1  G_A.max_production           1
    G_A.p_s0_t42           COST                        10  A_HV.p_balance_42            1
    G_A.p_s0_t42           G_A.min_dispatch_42          1  G_A.max_dispatch_42          1
    G_A.p_s0_t42           G_A.min_production           1  G_A.max_production           1
    G_A.p_s0_t43           COST                        10  A_HV.p_balance_43            1
    G_A.p_s0_t43           G_A.min_dispatch_43          1  G_A.max_dispatch_43          1
    G_A.p_s0_t43           G_A.min_production           1  G_A.max_production           1
    G_A.p_s0_t44           COST                        10  A_HV.p_balance_44            1
    G_A.p_s0_t44           G_A.min_dispatch_44          1  G_A.max_dispatch_44          1
    G_A.p_s0_t44           G_A.min_production           1  G_A.max_production           1
    G_A.p_s0_t45           COST                        10  A_HV.p_balance_45            1
    G_A.p_s0_t45           G_A.min_dispatch_45          1  G_A.max_dispatch_45          1
    G_A.p_s0_t45           G_A.min_production           1  G_A.max_production           1
    G_A.p_s0_t46           COST                        10  A_HV.p_balance_46            1
    G_A.p_s0_t46           G_A.min_dispatch_46          1  G_A.max_dispatch_46          1
    G_A.p_s0_t46           G_A.min_production           1  G_A.max_production           1
    G_A.p_s0_t47           COST                        10  A_HV.p_balance_47            1
    G_A.p_s0_t47           G_A.min_dispatch_47          1  G_A.max_dispatch_47          1
    G_A.p_s0_t47           G_A.min_production           1  G_A.max_production           1
    G_A.p_s0_t48           COST                        10  A_HV.p_balance_48            1
    G_A.p_s0_t48           G_A.min_dispatch_48          1  G_A.max_dispatch_48          1
    G_A.p_s0_t48           G_A.min_production           1  G_A.max_production           1
    G_A.p_s0_t49           COST                        10  A_HV.p_balance_49            1
    G_A.p_s0_t49           G_A.min_dispatch_49          1  G_A.max_dispatch_49          1
    G_A.p_s0_t49           G_A.min_production           1  G_A.max_production           1
    G_A.p_s0_t50           COST                        10  A_HV.p_balance_50            1
    G_A.p_s0_t50           G_A.min_dispatch_50          1  G_A.max_dispatch_50          1
    G_A.p_s0_t50           G_A.min_production           1  G_A.max_production           1
    G_A.p_s0_t51           COST                        10  A_HV.p_balance_51            1
    G_A.p_s0_t51           G_A.min_dispatch_51          1  G_A.max_dispatch_51          1
    G_A.p_s0_t51           G_A.min_production           1  G_A.max_production           1
    G_A.p_s0_t52           COST                        10  A_HV.p_balance_52            1
    G_A.p_s0_t52           G_A.min_dispatch_52          1  G_A.max_dispatch_52          1
    G_A.p_s0_t52           G_A.min_production           1  G_A.max_production           1
    G_A.p_s0_t53           COST                        10  A_HV.p_balance_53            1
    G_A.p_s0_t53           G_A.min_dispatch_53          1  G_A.max_dispatch_53          1
    G_A.p_s0_t53           G_A.min_production           1  G_A.max_production           1
    G_A.p_s0_t54           COST                        10  A_HV.p_balance_54            1
    G_A.p_s0_t54           G_A.min_dispatch_54          1  G_A.max_dispatch_54          1
    G_A.p_s0_t54           G_A.min_production           1  G_A.max_production           1
    G_A.p_s0_t55           COST                        10  A_HV.p_balance_55            1
    G_A.p_s0_t55           G_A.min_dispatch_55          1  G_A.max_dispatch_55          1
    G_A.p_s0_t55           G_A.min_production           1  G_A.max_production           1
    G_A.p_s0_t56           COST                        10  A_HV.p_balance_56            1
    G_A.p_s0_t56           G_A.min_dispatch_56          1  G_A.max_dispatch_56          1
    G_A.p_s0_t56           G_A.min_production           1  G_A.max_production           1
    G_A.p_s0_t57           COST                        10  A_HV.p_balance_57            1
    G_A.p_s0_t57           G_A.min_dispatch_57          1  G_A.max_dispatch_57          1
    G_A.p_s0_t57           G_A.min_production           1  G_A.max_production           1
    G_A.p_s0_t58           COST                        10  A_HV.p_balance_58            1
    G_A.p_s0_t58           G_A.min_dispatch_58          1  G_A.max_dispatch_58          1
    G_A.p_s0_t58           G_A.min_production           1  G_A.max_production           1
    G_A.p_s0_t59           COST                        10  A_HV.p_balance_59            1
    G_A.p_s0_t59           G_A.min_dispatch_59          1  G_A.max_dispatch_59          1
    G_A.p_s0_t59           G_A.min_production           1  G_A.max_production           1
    G_A.p_s0_t60           COST                        10  A_HV.p_balance_60            1
    G_A.p_s0_t60           G_A.min_dispatch_60          1  G_A.max_dispatch_60          1
    G_A.p_s0_t60           G_A.min_production           1  G_A.max_production           1
    G_A.p_s0_t61           COST                        10  A_HV.p_balance_61            1
    G_A.p_s0_t61           G_A.min_dispatch_61          1  G_A.max_dispatch_61          1
    G_A.p_s0_t61           G_A.min_production           1  G_A.max_production           1
    G_A.p_s0_t62           COST                        10  A_HV.p_balance_62            1
    G_A.p_s0_t62           G_A.min_dispatch_62          1  G_A.max_dispatch_62          1
    G_A.p_s0_t62           G_A.min_production           1  G_A.max_production           1
    G_A.p_s0_t63           COST                        10  A_HV.p_balance_63            1
    G_A.p_s0_t63           G_A.min_dispatch_63          1  G_A.max_dispatch_63          1
    G_A.p_s0_t63           G_A.min_production           1  G_A.max_production           1
    G_A.p_s0_t64           COST                        10  A_HV.p_balance_64            1
    G_A.p_s0_t64           G_A.min_dispatch_64          1  G_A.max_dispatch_64          1
    G_A.p_s0_t64           G_A.min_production           1  G_A.max_production           1
    G_A.p_s0_t65           COST                        10  A_HV.p_balance_65            1
    G_A.p_s0_t65           G_A.min_dispatch_65          1  G_A.max_dispatch_65          1
    G_A.p_s0_t65           G_A.min_production           1  G_A.max_production           1
    G_A.p_s0_t66           COST                        10  A_HV.p_balance_66            1
    G_A.p_s0_t66           G_A.min_dispatch_66          1  G_A.max_dispatch_66          1
    G_A.p_s0_t66           G_A.min_production           1  G_A.max_production           1
    G_A.p_s0_t67           COST                        10  A_HV.p_balance_67            1
    G_A.p_s0_t67           G_A.min_dispatch_67          1  G_A.max_dispatch_67          1
    G_A.p_s0_t67           G_A.min_production           1  G_A.max_production           1
    G_A.p_s0_t68           COST                        10  A_HV.p_balance_68            1
    G_A.p_s0_t68           G_A.min_dispatch_68          1  G_A.max_dispatch_68          1
    G_A.p_s0_t68           G_A.min_production           1  G_A.max_production           1
    G_A.p_s0_t69           COST                        10  A_HV.p_balance_69            1
    G_A.p_s0_t69           G_A.min_dispatch_69          1  G_A.max_dispatch_69          1
    G_A.p_s0_t69           G_A.min_production           1  G_A.max_production           1
    G_A.p_s0_t70           COST                        10  A_HV.p_balance_70            1
    G_A.p_s0_t70           G_A.min_dispatch_70          1  G_A.max_dispatch_70          1
    G_A.p_s0_t70           G_A.min_production           1  G_A.max_production           1
    G_A.p_s0_t71           COST                        10  A_HV.p_balance_71            1
    G_A.p_s0_t71           G_A.min_dispatch_71          1  G_A.max_dispatch_71          1
    G_A.p_s0_t71           G_A.min_production           1  G_A.max_production           1
    G_A.p_s0_t72           COST                        10  A_HV.p_balance_72            1
    G_A.p_s0_t72           G_A.min_dispatch_72          1  G_A.max_dispatch_72          1
    G_A.p_s0_t72           G_A.min_production           1  G_A.max_production           1
    G_A.p_s0_t73           COST                        10  A_HV.p_balance_73            1
    G_A.p_s0_t73           G_A.min_dispatch_73          1  G_A.max_dispatch_73          1
    G_A.p_s0_t73           G_A.min_production           1  G_A.max_production           1
    G_A.p_s0_t74           COST                        10  A_HV.p_balance_74            1
    G_A.p_s0_t74           G_A.min_dispatch_74          1  G_A.max_dispatch_74          1
    G_A.p_s0_t74           G_A.min_production           1  G_A.max_production           1
    G_A.p_s0_t75           COST                        10  A_HV.p_balance_75            1
    G_A.p_s0_t75           G_A.min_dispatch_75          1  G_A.max_dispatch_75          1
    G_A.p_s0_t75           G_A.min_production           1  G_A.max_production           1
    G_A.p_s0_t76           COST                        10  A_HV.p_balance_76            1
    G_A.p_s0_t76           G_A.min_dispatch_76          1  G_A.max_dispatch_76          1
    G_A.p_s0_t76           G_A.min_production           1  G_A.max_production           1
    G_A.p_s0_t77           COST                        10  A_HV.p_balance_77            1
    G_A.p_s0_t77           G_A.min_dispatch_77          1  G_A.max_dispatch_77          1
    G_A.p_s0_t77           G_A.min_production           1  G_A.max_production           1
    G_A.p_s0_t78           COST                        10  A_HV.p_balance_78            1
    G_A.p_s0_t78           G_A.min_dispatch_78          1  G_A.max_dispatch_78          1
    G_A.p_s0_t78           G_A.min_production           1  G_A.max_production           1
    G_A.p_s0_t79           COST                        10  A_HV.p_balance_79            1
    G_A.p_s0_t79           G_A.min_dispatch_79          1  G_A.max_dispatch_79          1
    G_A.p_s0_t79           G_A.min_production           1  G_A.max_production           1
    G_A.p_s0_t80           COST                        10  A_HV.p_balance_80            1
    G_A.p_s0_t80           G_A.min_dispatch_80          1  G_A.max_dispatch_80          1
    G_A.p_s0_t80           G_A.min_production           1  G_A.max_production           1
    G_A.p_s0_t81           COST                        10  A_HV.p_balance_81            1
    G_A.p_s0_t81           G_A.min_dispatch_81          1  G_A.max_dispatch_81          1
    G_A.p_s0_t81           G_A.min_production           1  G_A.max_production           1
    G_A.p_s0_t82           COST                        10  A_HV.p_balance_82            1
    G_A.p_s0_t82           G_A.min_dispatch_82          1  G_A.max_dispatch_82          1
    G_A.p_s0_t82           G_A.min_production           1  G_A.max_production           1
    G_A.p_s0_t83           COST                        10  A_HV.p_balance_83            1
    G_A.p_s0_t83           G_A.min_dispatch_83          1  G_A.max_dispatch_83          1
    G_A.p_s0_t83           G_A.min_production           1  G_A.max_production           1
    G_A.p_s0_t84           COST                        10  A_HV.p_balance_84            1
    G_A.p_s0_t84           G_A.min_dispatch_84          1  G_A.max_dispatch_84          1
    G_A.p_s0_t84           G_A.min_production           1  G_A.max_production           1
    G_A.p_s0_t85           COST                        10  A_HV.p_balance_85            1
    G_A.p_s0_t85           G_A.min_dispatch_85          1  G_A.max_dispatch_85          1
    G_A.p_s0_t85           G_A.min_production           1  G_A.max_production           1
    G_A.p_s0_t86           COST                        10  A_HV.p_balance_86            1
    G_A.p_s0_t86           G_A.min_dispatch_86          1  G_A.max_dispatch_86          1
    G_A.p_s0_t86           G_A.min_production           1  G_A.max_production           1
    G_A.p_s0_t87           COST                        10  A_HV.p_balance_87            1
    G_A.p_s0_t87           G_A.min_dispatch_87          1  G_A.max_dispatch_87          1
    G_A.p_s0_t87           G_A.min_production           1  G_A.max_production           1
    G_A.p_s0_t88           COST                        10  A_HV.p_balance_88            1
    G_A.p_s0_t88           G_A.min_dispatch_88          1  G_A.max_dispatch_88          1
    G_A.p_s0_t88           G_A.min_production           1  G_A.max_production           1
    G_A.p_s0_t89           COST                        10  A_HV.p_balance_89            1
    G_A.p_s0_t89           G_A.min_dispatch_89          1  G_A.max_dispatch_89          1
    G_A.p_s0_t89           G_A.min_production           1  G_A.max_production           1
    G_A.p_s0_t90           COST                        10  A_HV.p_balance_90            1
    G_A.p_s0_t90           G_A.min_dispatch_90          1  G_A.max_dispatch_90          1
    G_A.p_s0_t90           G_A.min_production           1  G_A.max_production           1
    G_A.p_s0_t91           COST                        10  A_HV.p_balance_91            1
    G_A.p_s0_t91           G_A.min_dispatch_91          1  G_A.max_dispatch_91          1
    G_A.p_s0_t91           G_A.min_production           1  G_A.max_production           1
    G_A.p_s0_t92           COST                        10  A_HV.p_balance_92            1
    G_A.p_s0_t92           G_A.min_dispatch_92          1  G_A.max_dispatch_92          1
    G_A.p_s0_t92           G_A.min_production           1  G_A.max_production           1
    G_A.p_s0_t93           COST                        10  A_HV.p_balance_93            1
    G_A.p_s0_t93           G_A.min_dispatch_93          1  G_A.max_dispatch_93          1
    G_A.p_s0_t93           G_A.min_production           1  G_A.max_production           1
    G_A.p_s0_t94           COST                        10  A_HV.p_balance_94            1
    G_A.p_s0_t94           G_A.min_dispatch_94          1  G_A.max_dispatch_94          1
    G_A.p_s0_t94           G_A.min_production           1  G_A.max_production           1
    G_A.p_s0_t95           COST                        10  A_HV.p_balance_95            1
    G_A.p_s0_t95           G_A.min_dispatch_95          1  G_A.max_dispatch_95          1
    G_A.p_s0_t95           G_A.min_production           1  G_A.max_production           1
    G_A.p_s0_t96           COST                        10  A_HV.p_balance_96            1
    G_A.p_s0_t96           G_A.min_dispatch_96          1  G_A.max_dispatch_96          1
    G_A.p_s0_t96           G_A.min_production           1  G_A.max_production           1
    G_A.p_s0_t97           COST                        10  A_HV.p_balance_97            1
    G_A.p_s0_t97           G_A.min_dispatch_97          1  G_A.max_dispatch_97          1
    G_A.p_s0_t97           G_A.min_production           1  G_A.max_production           1
    G_A.p_s0_t98           COST                        10  A_HV.p_balance_98            1
    G_A.p_s0_t98           G_A.min_dispatch_98          1  G_A.max_dispatch_98          1
    G_A.p_s0_t98           G_A.min_production           1  G_A.max_production           1
    G_A.p_s0_t99           COST                        10  A_HV.p_balance_99            1
    G_A.p_s0_t99           G_A.min_dispatch_99          1  G_A.max_dispatch_99          1
    G_A.p_s0_t99           G_A.min_production           1  G_A.max_production           1
    G_A.p_s0_t100          COST                        10  A_HV.p_balance_100           1
    G_A.p_s0_t100          G_A.min_dispatch_100         1  G_A.max_dispatch_100         1
    G_A.p_s0_t100          G_A.min_production           1  G_A.max_production           1
    G_A.p_s0_t101          COST                        10  A_HV.p_balance_101           1
    G_A.p_s0_t101          G_A.min_dispatch_101         1  G_A.max_dispatch_101         1
    G_A.p_s0_t101          G_A.min_production           1  G_A.max_production           1
    G_A.p_s0_t102          COST                        10  A_HV.p_balance_102           1
    G_A.p_s0_t102          G_A.min_dispatch_102         1  G_A.max_dispatch_102         1
    G_A.p_s0_t102          G_A.min_production           1  G_A.max_production           1
    G_A.p_s0_t103          COST                        10  A_HV.p_balance_103           1
    G_A.p_s0_t103          G_A.min_dispatch_103         1  G_A.max_dispatch_103         1
    G_A.p_s0_t103          G_A.min_production           1  G_A.max_production           1
    G_A.p_s0_t104          COST                        10  A_HV.p_balance_104           1
    G_A.p_s0_t104          G_A.min_dispatch_104         1  G_A.max_dispatch_104         1
    G_A.p_s0_t104          G_A.min_production           1  G_A.max_production           1
    G_A.p_s0_t105          COST                        10  A_HV.p_balance_105           1
    G_A.p_s0_t105          G_A.min_dispatch_105         1  G_A.max_dispatch_105         1
    G_A.p_s0_t105          G_A.min_production           1  G_A.max_production           1
    G_A.p_s0_t106          COST                        10  A_HV.p_balance_106           1
    G_A.p_s0_t106          G_A.min_dispatch_106         1  G_A.max_dispatch_106         1
    G_A.p_s0_t106          G_A.min_production           1  G_A.max_production           1
    G_A.p_s0_t107          COST                        10  A_HV.p_balance_107           1
    G_A.p_s0_t107          G_A.min_dispatch_107         1  G_A.max_dispatch_107         1
    G_A.p_s0_t107          G_A.min_production           1  G_A.max_production           1
    G_A.p_s0_t108          COST                        10  A_HV.p_balance_108           1
    G_A.p_s0_t108          G_A.min_dispatch_108         1  G_A.max_dispatch_108         1
    G_A.p_s0_t108          G_A.min_production           1  G_A.max_production           1
    G_A.p_s0_t109          COST                        10  A_HV.p_balance_109           1
    G_A.p_s0_t109          G_A.min_dispatch_109         1  G_A.max_dispatch_109         1
    G_A.p_s0_t109          G_A.min_production           1  G_A.max_production           1
    G_A.p_s0_t110          COST                        10  A_HV.p_balance_110           1
    G_A.p_s0_t110          G_A.min_dispatch_110         1  G_A.max_dispatch_110         1
    G_A.p_s0_t110          G_A.min_production           1  G_A.max_production           1
    G_A.p_s0_t111          COST                        10  A_HV.p_balance_111           1
    G_A.p_s0_t111          G_A.min_dispatch_111         1  G_A.max_dispatch_111         1
    G_A.p_s0_t111          G_A.min_production           1  G_A.max_production           1
    G_A.p_s0_t112          COST                        10  A_HV.p_balance_112           1
    G_A.p_s0_t112          G_A.min_dispatch_112         1  G_A.max_dispatch_112         1
    G_A.p_s0_t112          G_A.min_production           1  G_A.max_production           1
    G_A.p_s0_t113          COST                        10  A_HV.p_balance_113           1
    G_A.p_s0_t113          G_A.min_dispatch_113         1  G_A.max_dispatch_113         1
    G_A.p_s0_t113          G_A.min_production           1  G_A.max_production           1
    G_A.p_s0_t114          COST                        10  A_HV.p_balance_114           1
    G_A.p_s0_t114          G_A.min_dispatch_114         1  G_A.max_dispatch_114         1
    G_A.p_s0_t114          G_A.min_production           1  G_A.max_production           1
    G_A.p_s0_t115          COST                        10  A_HV.p_balance_115           1
    G_A.p_s0_t115          G_A.min_dispatch_115         1  G_A.max_dispatch_115         1
    G_A.p_s0_t115          G_A.min_production           1  G_A.max_production           1
    G_A.p_s0_t116          COST                        10  A_HV.p_balance_116           1
    G_A.p_s0_t116          G_A.min_dispatch_116         1  G_A.max_dispatch_116         1
    G_A.p_s0_t116          G_A.min_production           1  G_A.max_production           1
    G_A.p_s0_t117          COST                        10  A_HV.p_balance_117           1
    G_A.p_s0_t117          G_A.min_dispatch_117         1  G_A.max_dispatch_117         1
    G_A.p_s0_t117          G_A.min_production           1  G_A.max_production           1
    G_A.p_s0_t118          COST                        10  A_HV.p_balance_118           1
    G_A.p_s0_t118          G_A.min_dispatch_118         1  G_A.max_dispatch_118         1
    G_A.p_s0_t118          G_A.min_production           1  G_A.max_production           1
    G_A.p_s0_t119          COST                        10  A_HV.p_balance_119           1
    G_A.p_s0_t119          G_A.min_dispatch_119         1  G_A.max_dispatch_119         1
    G_A.p_s0_t119          G_A.min_production           1  G_A.max_production           1
    G_A.p_s0_t120          COST                        10  A_HV.p_balance_120           1
    G_A.p_s0_t120          G_A.min_dispatch_120         1  G_A.max_dispatch_120         1
    G_A.p_s0_t120          G_A.min_production           1  G_A.max_production           1
    G_A.p_s0_t121          COST                        10  A_HV.p_balance_121           1
    G_A.p_s0_t121          G_A.min_dispatch_121         1  G_A.max_dispatch_121         1
    G_A.p_s0_t121          G_A.min_production           1  G_A.max_production           1
    G_A.p_s0_t122          COST                        10  A_HV.p_balance_122           1
    G_A.p_s0_t122          G_A.min_dispatch_122         1  G_A.max_dispatch_122         1
    G_A.p_s0_t122          G_A.min_production           1  G_A.max_production           1
    G_A.p_s0_t123          COST                        10  A_HV.p_balance_123           1
    G_A.p_s0_t123          G_A.min_dispatch_123         1  G_A.max_dispatch_123         1
    G_A.p_s0_t123          G_A.min_production           1  G_A.max_production           1
    G_A.p_s0_t124          COST                        10  A_HV.p_balance_124           1
    G_A.p_s0_t124          G_A.min_dispatch_124         1  G_A.max_dispatch_124         1
    G_A.p_s0_t124          G_A.min_production           1  G_A.max_production           1
    G_A.p_s0_t125          COST                        10  A_HV.p_balance_125           1
    G_A.p_s0_t125          G_A.min_dispatch_125         1  G_A.max_dispatch_125         1
    G_A.p_s0_t125          G_A.min_production           1  G_A.max_production           1
    G_A.p_s0_t126          COST                        10  A_HV.p_balance_126           1
    G_A.p_s0_t126          G_A.min_dispatch_126         1  G_A.max_dispatch_126         1
    G_A.p_s0_t126          G_A.min_production           1  G_A.max_production           1
    G_A.p_s0_t127          COST                        10  A_HV.p_balance_127           1
    G_A.p_s0_t127          G_A.min_dispatch_127         1  G_A.max_dispatch_127         1
    G_A.p_s0_t127          G_A.min_production           1  G_A.max_production           1
    G_A.p_s0_t128          COST                        10  A_HV.p_balance_128           1
    G_A.p_s0_t128          G_A.min_dispatch_128         1  G_A.max_dispatch_128         1
    G_A.p_s0_t128          G_A.min_production           1  G_A.max_production           1
    G_A.p_s0_t129          COST                        10  A_HV.p_balance_129           1
    G_A.p_s0_t129          G_A.min_dispatch_129         1  G_A.max_dispatch_129         1
    G_A.p_s0_t129          G_A.min_production           1  G_A.max_production           1
    G_A.p_s0_t130          COST                        10  A_HV.p_balance_130           1
    G_A.p_s0_t130          G_A.min_dispatch_130         1  G_A.max_dispatch_130         1
    G_A.p_s0_t130          G_A.min_production           1  G_A.max_production           1
    G_A.p_s0_t131          COST                        10  A_HV.p_balance_131           1
    G_A.p_s0_t131          G_A.min_dispatch_131         1  G_A.max_dispatch_131         1
    G_A.p_s0_t131          G_A.min_production           1  G_A.max_production           1
    G_A.p_s0_t132          COST                        10  A_HV.p_balance_132           1
    G_A.p_s0_t132          G_A.min_dispatch_132         1  G_A.max_dispatch_132         1
    G_A.p_s0_t132          G_A.min_production           1  G_A.max_production           1
    G_A.p_s0_t133          COST                        10  A_HV.p_balance_133           1
    G_A.p_s0_t133          G_A.min_dispatch_133         1  G_A.max_dispatch_133         1
    G_A.p_s0_t133          G_A.min_production           1  G_A.max_production           1
    G_A.p_s0_t134          COST                        10  A_HV.p_balance_134           1
    G_A.p_s0_t134          G_A.min_dispatch_134         1  G_A.max_dispatch_134         1
    G_A.p_s0_t134          G_A.min_production           1  G_A.max_production           1
    G_A.p_s0_t135          COST                        10  A_HV.p_balance_135           1
    G_A.p_s0_t135          G_A.min_dispatch_135         1  G_A.max_dispatch_135         1
    G_A.p_s0_t135          G_A.min_production           1  G_A.max_production           1
    G_A.p_s0_t136          COST                        10  A_HV.p_balance_136           1
    G_A.p_s0_t136          G_A.min_dispatch_136         1  G_A.max_dispatch_136         1
    G_A.p_s0_t136          G_A.min_production           1  G_A.max_production           1
    G_A.p_s0_t137          COST                        10  A_HV.p_balance_137           1
    G_A.p_s0_t137          G_A.min_dispatch_137         1  G_A.max_dispatch_137         1
    G_A.p_s0_t137          G_A.min_production           1  G_A.max_production           1
    G_A.p_s0_t138          COST                        10  A_HV.p_balance_138           1
    G_A.p_s0_t138          G_A.min_dispatch_138         1  G_A.max_dispatch_138         1
    G_A.p_s0_t138          G_A.min_production           1  G_A.max_production           1
    G_A.p_s0_t139          COST                        10  A_HV.p_balance_139           1
    G_A.p_s0_t139          G_A.min_dispatch_139         1  G_A.max_dispatch_139         1
    G_A.p_s0_t139          G_A.min_production           1  G_A.max_production           1
    G_A.p_s0_t140          COST                        10  A_HV.p_balance_140           1
    G_A.p_s0_t140          G_A.min_dispatch_140         1  G_A.max_dispatch_140         1
    G_A.p_s0_t140          G_A.min_production           1  G_A.max_production           1
    G_A.p_s0_t141          COST                        10  A_HV.p_balance_141           1
    G_A.p_s0_t141          G_A.min_dispatch_141         1  G_A.max_dispatch_141         1
    G_A.p_s0_t141          G_A.min_production           1  G_A.max_production           1
    G_A.p_s0_t142          COST                        10  A_HV.p_balance_142           1
    G_A.p_s0_t142          G_A.min_dispatch_142         1  G_A.max_dispatch_142         1
    G_A.p_s0_t142          G_A.min_production           1  G_A.max_production           1
    G_A.p_s0_t143          COST                        10  A_HV.p_balance_143           1
    G_A.p_s0_t143          G_A.min_dispatch_143         1  G_A.max_dispatch_143         1
    G_A.p_s0_t143          G_A.min_production           1  G_A.max_production           1
    G_A.p_s0_t144          COST                        10  A_HV.p_balance_144           1
    G_A.p_s0_t144          G_A.min_dispatch_144         1  G_A.max_dispatch_144         1
    G_A.p_s0_t144          G_A.min_production           1  G_A.max_production           1
    G_A.p_s0_t145          COST                        10  A_HV.p_balance_145           1
    G_A.p_s0_t145          G_A.min_dispatch_145         1  G_A.max_dispatch_145         1
    G_A.p_s0_t145          G_A.min_production           1  G_A.max_production           1
    G_A.p_s0_t146          COST                        10  A_HV.p_balance_146           1
    G_A.p_s0_t146          G_A.min_dispatch_146         1  G_A.max_dispatch_146         1
    G_A.p_s0_t146          G_A.min_production           1  G_A.max_production           1
    G_A.p_s0_t147          COST                        10  A_HV.p_balance_147           1
    G_A.p_s0_t147          G_A.min_dispatch_147         1  G_A.max_dispatch_147         1
    G_A.p_s0_t147          G_A.min_production           1  G_A.max_production           1
    G_A.p_s0_t148          COST                        10  A_HV.p_balance_148           1
    G_A.p_s0_t148          G_A.min_dispatch_148         1  G_A.max_dispatch_148         1
    G_A.p_s0_t148          G_A.min_production           1  G_A.max_production           1
    G_A.p_s0_t149          COST                        10  A_HV.p_balance_149           1
    G_A.p_s0_t149          G_A.min_dispatch_149         1  G_A.max_dispatch_149         1
    G_A.p_s0_t149          G_A.min_production           1  G_A.max_production           1
    G_A.p_s0_t150          COST                        10  A_HV.p_balance_150           1
    G_A.p_s0_t150          G_A.min_dispatch_150         1  G_A.max_dispatch_150         1
    G_A.p_s0_t150          G_A.min_production           1  G_A.max_production           1
    G_A.p_s0_t151          COST                        10  A_HV.p_balance_151           1
    G_A.p_s0_t151          G_A.min_dispatch_151         1  G_A.max_dispatch_151         1
    G_A.p_s0_t151          G_A.min_production           1  G_A.max_production           1
    G_A.p_s0_t152          COST                        10  A_HV.p_balance_152           1
    G_A.p_s0_t152          G_A.min_dispatch_152         1  G_A.max_dispatch_152         1
    G_A.p_s0_t152          G_A.min_production           1  G_A.max_production           1
    G_A.p_s0_t153          COST                        10  A_HV.p_balance_153           1
    G_A.p_s0_t153          G_A.min_dispatch_153         1  G_A.max_dispatch_153         1
    G_A.p_s0_t153          G_A.min_production           1  G_A.max_production           1
    G_A.p_s0_t154          COST                        10  A_HV.p_balance_154           1
    G_A.p_s0_t154          G_A.min_dispatch_154         1  G_A.max_dispatch_154         1
    G_A.p_s0_t154          G_A.min_production           1  G_A.max_production           1
    G_A.p_s0_t155          COST                        10  A_HV.p_balance_155           1
    G_A.p_s0_t155          G_A.min_dispatch_155         1  G_A.max_dispatch_155         1
    G_A.p_s0_t155          G_A.min_production           1  G_A.max_production           1
    G_A.p_s0_t156          COST                        10  A_HV.p_balance_156           1
    G_A.p_s0_t156          G_A.min_dispatch_156         1  G_A.max_dispatch_156         1
    G_A.p_s0_t156          G_A.min_production           1  G_A.max_production           1
    G_A.p_s0_t157          COST                        10  A_HV.p_balance_157           1
    G_A.p_s0_t157          G_A.min_dispatch_157         1  G_A.max_dispatch_157         1
    G_A.p_s0_t157          G_A.min_production           1  G_A.max_production           1
    G_A.p_s0_t158          COST                        10  A_HV.p_balance_158           1
    G_A.p_s0_t158          G_A.min_dispatch_158         1  G_A.max_dispatch_158         1
    G_A.p_s0_t158          G_A.min_production           1  G_A.max_production           1
    G_A.p_s0_t159          COST                        10  A_HV.p_balance_159           1
    G_A.p_s0_t159          G_A.min_dispatch_159         1  G_A.max_dispatch_159         1
    G_A.p_s0_t159          G_A.min_production           1  G_A.max_production           1
    G_A.p_s0_t160          COST                        10  A_HV.p_balance_160           1
    G_A.p_s0_t160          G_A.min_dispatch_160         1  G_A.max_dispatch_160         1
    G_A.p_s0_t160          G_A.min_production           1  G_A.max_production           1
    G_A.p_s0_t161          COST                        10  A_HV.p_balance_161           1
    G_A.p_s0_t161          G_A.min_dispatch_161         1  G_A.max_dispatch_161         1
    G_A.p_s0_t161          G_A.min_production           1  G_A.max_production           1
    G_A.p_s0_t162          COST                        10  A_HV.p_balance_162           1
    G_A.p_s0_t162          G_A.min_dispatch_162         1  G_A.max_dispatch_162         1
    G_A.p_s0_t162          G_A.min_production           1  G_A.max_production           1
    G_A.p_s0_t163          COST                        10  A_HV.p_balance_163           1
    G_A.p_s0_t163          G_A.min_dispatch_163         1  G_A.max_dispatch_163         1
    G_A.p_s0_t163          G_A.min_production           1  G_A.max_production           1
    G_A.p_s0_t164          COST                        10  A_HV.p_balance_164           1
    G_A.p_s0_t164          G_A.min_dispatch_164         1  G_A.max_dispatch_164         1
    G_A.p_s0_t164          G_A.min_production           1  G_A.max_production           1
    G_A.p_s0_t165          COST                        10  A_HV.p_balance_165           1
    G_A.p_s0_t165          G_A.min_dispatch_165         1  G_A.max_dispatch_165         1
    G_A.p_s0_t165          G_A.min_production           1  G_A.max_production           1
    G_A.p_s0_t166          COST                        10  A_HV.p_balance_166           1
    G_A.p_s0_t166          G_A.min_dispatch_166         1  G_A.max_dispatch_166         1
    G_A.p_s0_t166          G_A.min_production           1  G_A.max_production           1
    G_A.p_s0_t167          COST                        10  A_HV.p_balance_167           1
    G_A.p_s0_t167          G_A.min_dispatch_167         1  G_A.max_dispatch_167         1
    G_A.p_s0_t167          G_A.min_production           1  G_A.max_production           1
    G_C.p_nom              G_C.max_dispatch_0          -1  G_C.max_dispatch_1          -1
    G_C.p_nom              G_C.max_dispatch_2          -1  G_C.max_dispatch_3          -1
    G_C.p_nom              G_C.max_dispatch_4          -1  G_C.max_dispatch_5          -1
    G_C.p_nom              G_C.max_dispatch_6          -1  G_C.max_dispatch_7          -1
    G_C.p_nom              G_C.max_dispatch_8          -1  G_C.max_dispatch_9          -1
    G_C.p_nom              G_C.max_dispatch_10         -1  G_C.max_dispatch_11         -1
    G_C.p_nom              G_C.max_dispatch_12         -1  G_C.max_dispatch_13         -1
    G_C.p_nom              G_C.max_dispatch_14         -1  G_C.max_dispatch_15         -1
    G_C.p_nom              G_C.max_dispatch_16         -1  G_C.max_dispatch_17         -1
    G_C.p_nom              G_C.max_dispatch_18         -1  G_C.max_dispatch_19         -1
    G_C.p_nom              G_C.max_dispatch_20         -1  G_C.max_dispatch_21         -1
    G_C.p_nom              G_C.max_dispatch_22         -1  G_C.max_dispatch_23         -1
    G_C.p_nom              G_C.max_dispatch_24         -1  G_C.max_dispatch_25         -1
    G_C.p_nom              G_C.max_dispatch_26         -1  G_C.max_dispatch_27         -1
    G_C.p_nom              G_C.max_dispatch_28         -1  G_C.max_dispatch_29         -1
    G_C.p_nom              G_C.max_dispatch_30         -1  G_C.max_dispatch_31         -1
    G_C.p_nom              G_C.max_dispatch_32         -1  G_C.max_dispatch_33         -1
    G_C.p_nom              G_C.max_dispatch_34         -1  G_C.max_dispatch_35         -1
    G_C.p_nom              G_C.max_dispatch_36         -1  G_C.max_dispatch_37         -1
    G_C.p_nom              G_C.max_dispatch_38         -1  G_C.max_dispatch_39         -1
    G_C.p_nom              G_C.max_dispatch_40         -1  G_C.max_dispatch_41         -1
    G_C.p_nom              G_C.max_dispatch_42         -1  G_C.max_dispatch_43         -1
    G_C.p_nom              G_C.max_dispatch_44         -1  G_C.max_dispatch_45         -1
    G_C.p_nom              G_C.max_dispatch_46         -1  G_C.max_dispatch_47         -1
    G_C.p_nom              G_C.max_dispatch_48         -1  G_C.max_dispatch_49         -1
    G_C.p_nom              G_C.max_dispatch_50         -1  G_C.max_dispatch_51         -1
    G_C.p_nom              G_C.max_dispatch_52         -1  G_C.max_dispatch_53         -1
    G_C.p_nom              G_C.max_dispatch_54         -1  G_C.max_dispatch_55         -1
    G_C.p_nom              G_C.max_dispatch_56         -1  G_C.max_dispatch_57         -1
    G_C.p_nom              G_C.max_dispatch_58         -1  G_C.max_dispatch_59         -1
    G_C.p_nom              G_C.max_dispatch_60         -1  G_C.max_dispatch_61         -1
    G_C.p_nom              G_C.max_dispatch_62         -1  G_C.max_dispatch_63         -1
    G_C.p_nom              G_C.max_dispatch_64         -1  G_C.max_dispatch_65         -1
    G_C.p_nom              G_C.max_dispatch_66         -1  G_C.max_dispatch_67         -1
    G_C.p_nom              G_C.max_dispatch_68         -1  G_C.max_dispatch_69         -1
    G_C.p_nom              G_C.max_dispatch_70         -1  G_C.max_dispatch_71         -1
    G_C.p_nom              G_C.max_dispatch_72         -1  G_C.max_dispatch_73         -1
    G_C.p_nom              G_C.max_dispatch_74         -1  G_C.max_dispatch_75         -1
    G_C.p_nom              G_C.max_dispatch_76         -1  G_C.max_dispatch_77         -1
    G_C.p_nom              G_C.max_dispatch_78         -1  G_C.max_dispatch_79         -1
    G_C.p_nom              G_C.max_dispatch_80         -1  G_C.max_dispatch_81         -1
    G_C.p_nom              G_C.max_dispatch_82         -1  G_C.max_dispatch_83         -1
    G_C.p_nom              G_C.max_dispatch_84         -1  G_C.max_dispatch_85         -1
    G_C.p_nom              G_C.max_dispatch_86         -1  G_C.max_dispatch_87         -1
    G_C.p_nom              G_C.max_dispatch_88         -1  G_C.max_dispatch_89         -1
    G_C.p_nom              G_C.max_dispatch_90         -1  G_C.max_dispatch_91         -1
    G_C.p_nom              G_C.max_dispatch_92         -1  G_C.max_dispatch_93         -1
    G_C.p_nom              G_C.max_dispatch_94         -1  G_C.max_dispatch_95         -1
    G_C.p_nom              G_C.max_dispatch_96         -1  G_C.max_dispatch_97         -1
    G_C.p_nom              G_C.max_dispatch_98         -1  G_C.max_dispatch_99         -1
    G_C.p_nom              G_C.max_dispatch_100        -1  G_C.max_dispatch_101        -1
    G_C.p_nom              G_C.max_dispatch_102        -1  G_C.max_dispatch_103        -1
    G_C.p_nom              G_C.max_dispatch_104        -1  G_C.max_dispatch_105        -1
    G_C.p_nom              G_C.max_dispatch_106        -1  G_C.max_dispatch_107        -1
    G_C.p_nom              G_C.max_dispatch_108        -1  G_C.max_dispatch_109        -1
    G_C.p_nom              G_C.max_dispatch_110        -1  G_C.max_dispatch_111        -1
    G_C.p_nom              G_C.max_dispatch_112        -1  G_C.max_dispatch_113        -1
    G_C.p_nom              G_C.max_dispatch_114        -1  G_C.max_dispatch_115        -1
    G_C.p_nom              G_C.max_dispatch_116        -1  G_C.max_dispatch_117        -1
    G_C.p_nom              G_C.max_dispatch_118        -1  G_C.max_dispatch_119        -1
    G_C.p_nom              G_C.max_dispatch_120        -1  G_C.max_dispatch_121        -1
    G_C.p_nom              G_C.max_dispatch_122        -1  G_C.max_dispatch_123        -1
    G_C.p_nom              G_C.max_dispatch_124        -1  G_C.max_dispatch_125        -1
    G_C.p_nom              G_C.max_dispatch_126        -1  G_C.max_dispatch_127        -1
    G_C.p_nom              G_C.max_dispatch_128        -1  G_C.max_dispatch_129        -1
    G_C.p_nom              G_C.max_dispatch_130        -1  G_C.max_dispatch_131        -1
    G_C.p_nom              G_C.max_dispatch_132        -1  G_C.max_dispatch_133        -1
    G_C.p_nom              G_C.max_dispatch_134        -1  G_C.max_dispatch_135        -1
    G_C.p_nom              G_C.max_dispatch_136        -1  G_C.max_dispatch_137        -1
    G_C.p_nom              G_C.max_dispatch_138        -1  G_C.max_dispatch_139        -1
    G_C.p_nom              G_C.max_dispatch_140        -1  G_C.max_dispatch_141        -1
    G_C.p_nom              G_C.max_dispatch_142        -1  G_C.max_dispatch_143        -1
    G_C.p_nom              G_C.max_dispatch_144        -1  G_C.max_dispatch_145        -1
    G_C.p_nom              G_C.max_dispatch_146        -1  G_C.max_dispatch_147        -1
    G_C.p_nom              G_C.max_dispatch_148        -1  G_C.max_dispatch_149        -1
    G_C.p_nom              G_C.max_dispatch_150        -1  G_C.max_dispatch_151        -1
    G_C.p_nom              G_C.max_dispatch_152        -1  G_C.max_dispatch_153        -1
    G_C.p_nom              G_C.max_dispatch_154        -1  G_C.max_dispatch_155        -1
    G_C.p_nom              G_C.max_dispatch_156        -1  G_C.max_dispatch_157        -1
    G_C.p_nom              G_C.max_dispatch_158        -1  G_C.max_dispatch_159        -1
    G_C.p_nom              G_C.max_dispatch_160        -1  G_C.max_dispatch_161        -1
    G_C.p_nom              G_C.max_dispatch_162        -1  G_C.max_dispatch_163        -1
    G_C.p_nom              G_C.max_dispatch_164        -1  G_C.max_dispatch_165        -1
    G_C.p_nom              G_C.max_dispatch_166        -1  G_C.max_dispatch_167        -1
    G_C.p_s0_t0            COST                        80  C_LV.p_balance_0             1
    G_C.p_s0_t0            G_C.min_dispatch_0           1  G_C.max_dispatch_0           1
    G_C.p_s0_t0            G_C.min_production           1  G_C.max_production           1
    G_C.p_s0_t1            COST                        80  C_LV.p_balance_1             1
    G_C.p_s0_t1            G_C.min_dispatch_1           1  G_C.max_dispatch_1           1
    G_C.p_s0_t1            G_C.min_production           1  G_C.max_production           1
    G_C.p_s0_t2            COST                        80  C_LV.p_balance_2             1
    G_C.p_s0_t2            G_C.min_dispatch_2           1  G_C.max_dispatch_2           1
    G_C.p_s0_t2            G_C.min_production           1  G_C.max_production           1
    G_C.p_s0_t3            COST                        80  C_LV.p_balance_3             1
    G_C.p_s0_t3            G_C.min_dispatch_3           1  G_C.max_dispatch_3           1
    G_C.p_s0_t3            G_C.min_production           1  G_C.max_production           1
    G_C.p_s0_t4            COST                        80  C_LV.p_balance_4             1
    G_C.p_s0_t4            G_C.min_dispatch_4           1  G_C.max_dispatch_4           1
    G_C.p_s0_t4            G_C.min_production           1  G_C.max_production           1
    G_C.p_s0_t5            COST                        80  C_LV.p_balance_5             1
    G_C.p_s0_t5            G_C.min_dispatch_5           1  G_C.max_dispatch_5           1
    G_C.p_s0_t5            G_C.min_production           1  G_C.max_production           1
    G_C.p_s0_t6            COST                        80  C_LV.p_balance_6             1
    G_C.p_s0_t6            G_C.min_dispatch_6           1  G_C.max_dispatch_6           1
    G_C.p_s0_t6            G_C.min_production           1  G_C.max_production           1
    G_C.p_s0_t7            COST                        80  C_LV.p_balance_7             1
    G_C.p_s0_t7            G_C.min_dispatch_7           1  G_C.max_dispatch_7           1
    G_C.p_s0_t7            G_C.min_production           1  G_C.max_production           1
    G_C.p_s0_t8            COST                        80  C_LV.p_balance_8             1
    G_C.p_s0_t8            G_C.min_dispatch_8           1  G_C.max_dispatch_8           1
    G_C.p_s0_t8            G_C.min_production           1  G_C.max_production           1
    G_C.p_s0_t9            COST                        80  C_LV.p_balance_9             1
    G_C.p_s0_t9            G_C.min_dispatch_9           1  G_C.max_dispatch_9           1
    G_C.p_s0_t9            G_C.min_production           1  G_C.max_production           1
    G_C.p_s0_t10           COST                        80  C_LV.p_balance_10            1
    G_C.p_s0_t10           G_C.min_dispatch_10          1  G_C.max_dispatch_10          1
    G_C.p_s0_t10           G_C.min_production           1  G_C.max_production           1
    G_C.p_s0_t11           COST                        80  C_LV.p_balance_11            1
    G_C.p_s0_t11           G_C.min_dispatch_11          1  G_C.max_dispatch_11          1
    G_C.p_s0_t11           G_C.min_production           1  G_C.max_production           1
    G_C.p_s0_t12           COST                        80  C_LV.p_balance_12            1
    G_C.p_s0_t12           G_C.min_dispatch_12          1  G_C.max_dispatch_12          1
    G_C.p_s0_t12           G_C.min_production           1  G_C.max_production           1
    G_C.p_s0_t13           COST                        80  C_LV.p_balance_13            1
    G_C.p_s0_t13           G_C.min_dispatch_13          1  G_C.max_dispatch_13          1
    G_C.p_s0_t13           G_C.min_production           1  G_C.max_production           1
    G_C.p_s0_t14           COST                        80  C_LV.p_balance_14            1
    G_C.p_s0_t14           G_C.min_dispatch_14          1  G_C.max_dispatch_14          1
    G_C.p_s0_t14           G_C.min_production           1  G_C.max_production           1
    G_C.p_s0_t15           COST                        80  C_LV.p_balance_15            1
    G_C.p_s0_t15           G_C.min_dispatch_15          1  G_C.max_dispatch_15          1
    G_C.p_s0_t15           G_C.min_production           1  G_C.max_production           1
    G_C.p_s0_t16           COST                        80  C_LV.p_balance_16            1
    G_C.p_s0_t16           G_C.min_dispatch_16          1  G_C.max_dispatch_16          1
    G_C.p_s0_t16           G_C.min_production           1  G_C.max_production           1
    G_C.p_s0_t17           COST                        80  C_LV.p_balance_17            1
    G_C.p_s0_t17           G_C.min_dispatch_17          1  G_C.max_dispatch_17          1
    G_C.p_s0_t17           G_C.min_production           1  G_C.max_production           1
    G_C.p_s0_t18           COST                        80  C_LV.p_balance_18            1
    G_C.p_s0_t18           G_C.min_dispatch_18          1  G_C.max_dispatch_18          1
    G_C.p_s0_t18           G_C.min_production           1  G_C.max_production           1
    G_C.p_s0_t19           COST                        80  C_LV.p_balance_19            1
    G_C.p_s0_t19           G_C.min_dispatch_19          1  G_C.max_dispatch_19          1
    G_C.p_s0_t19           G_C.min_production           1  G_C.max_production           1
    G_C.p_s0_t20           COST                        80  C_LV.p_balance_20            1
    G_C.p_s0_t20           G_C.min_dispatch_20          1  G_C.max_dispatch_20          1
    G_C.p_s0_t20           G_C.min_production           1  G_C.max_production           1
    G_C.p_s0_t21           COST                        80  C_LV.p_balance_21            1
    G_C.p_s0_t21           G_C.min_dispatch_21          1  G_C.max_dispatch_21          1
    G_C.p_s0_t21           G_C.min_production           1  G_C.max_production           1
    G_C.p_s0_t22           COST                        80  C_LV.p_balance_22            1
    G_C.p_s0_t22           G_C.min_dispatch_22          1  G_C.max_dispatch_22          1
    G_C.p_s0_t22           G_C.min_production           1  G_C.max_production           1
    G_C.p_s0_t23           COST                        80  C_LV.p_balance_23            1
    G_C.p_s0_t23           G_C.min_dispatch_23          1  G_C.max_dispatch_23          1
    G_C.p_s0_t23           G_C.min_production           1  G_C.max_production           1
    G_C.p_s0_t24           COST                        80  C_LV.p_balance_24            1
    G_C.p_s0_t24           G_C.min_dispatch_24          1  G_C.max_dispatch_24          1
    G_C.p_s0_t24           G_C.min_production           1  G_C.max_production           1
    G_C.p_s0_t25           COST                        80  C_LV.p_balance_25            1
    G_C.p_s0_t25           G_C.min_dispatch_25          1  G_C.max_dispatch_25          1
    G_C.p_s0_t25           G_C.min_production           1  G_C.max_production           1
    G_C.p_s0_t26           COST                        80  C_LV.p_balance_26            1
    G_C.p_s0_t26           G_C.min_dispatch_26          1  G_C.max_dispatch_26          1
    G_C.p_s0_t26           G_C.min_production           1  G_C.max_production           1
    G_C.p_s0_t27           COST                        80  C_LV.p_balance_27            1
    G_C.p_s0_t27           G_C.min_dispatch_27          1  G_C.max_dispatch_27          1
    G_C.p_s0_t27           G_C.min_production           1  G_C.max_production           1
    G_C.p_s0_t28           COST                        80  C_LV.p_balance_28            1
    G_C.p_s0_t28           G_C.min_dispatch_28          1  G_C.max_dispatch_28          1
    G_C.p_s0_t28           G_C.min_production           1  G_C.max_production           1
    G_C.p_s0_t29           COST                        80  C_LV.p_balance_29            1
    G_C.p_s0_t29           G_C.min_dispatch_29          1  G_C.max_dispatch_29          1
    G_C.p_s0_t29           G_C.min_production           1  G_C.max_production           1
    G_C.p_s0_t30           COST                        80  C_LV.p_balance_30            1
    G_C.p_s0_t30           G_C.min_dispatch_30          1  G_C.max_dispatch_30          1
    G_C.p_s0_t30           G_C.min_production           1  G_C.max_production           1
    G_C.p_s0_t31           COST                        80  C_LV.p_balance_31            1
    G_C.p_s0_t31           G_C.min_dispatch_31          1  G_C.max_dispatch_31          1
    G_C.p_s0_t31           G_C.min_production           1  G_C.max_production           1
    G_C.p_s0_t32           COST                        80  C_LV.p_balance_32            1
    G_C.p_s0_t32           G_C.min_dispatch_32          1  G_C.max_dispatch_32          1
    G_C.p_s0_t32           G_C.min_production           1  G_C.max_production           1
    G_C.p_s0_t33           COST                        80  C_LV.p_balance_33            1
    G_C.p_s0_t33           G_C.min_dispatch_33          1  G_C.max_dispatch_33          1
    G_C.p_s0_t33           G_C.min_production           1  G_C.max_production           1
    G_C.p_s0_t34           COST                        80  C_LV.p_balance_34            1
    G_C.p_s0_t34           G_C.min_dispatch_34          1  G_C.max_dispatch_34          1
    G_C.p_s0_t34           G_C.min_production           1  G_C.max_production           1
    G_C.p_s0_t35           COST                        80  C_LV.p_balance_35            1
    G_C.p_s0_t35           G_C.min_dispatch_35          1  G_C.max_dispatch_35          1
    G_C.p_s0_t35           G_C.min_production           1  G_C.max_production           1
    G_C.p_s0_t36           COST                        80  C_LV.p_balance_36            1
    G_C.p_s0_t36           G_C.min_dispatch_36          1  G_C.max_dispatch_36          1
    G_C.p_s0_t36           G_C.min_production           1  G_C.max_production           1
    G_C.p_s0_t37           COST                        80  C_LV.p_balance_37            1
    G_C.p_s0_t37           G_C.min_dispatch_37          1  G_C.max_dispatch_37          1
    G_C.p_s0_t37           G_C.min_production           1  G_C.max_production           1
    G_C.p_s0_t38           COST                        80  C_LV.p_balance_38            1
    G_C.p_s0_t38           G_C.min_dispatch_38          1  G_C.max_dispatch_38          1
    G_C.p_s0_t38           G_C.min_production           1  G_C.max_production           1
    G_C.p_s0_t39           COST                        80  C_LV.p_balance_39            1
    G_C.p_s0_t39           G_C.min_dispatch_39          1  G_C.max_dispatch_39          1
    G_C.p_s0_t39           G_C.min_production           1  G_C.max_production           1
    G_C.p_s0_t40           COST                        80  C_LV.p_balance_40            1
    G_C.p_s0_t40           G_C.min_dispatch_40          1  G_C.max_dispatch_40          1
    G_C.p_s0_t40           G_C.min_production           1  G_C.max_production           1
    G_C.p_s0_t41           COST                        80  C_LV.p_balance_41            1
    G_C.p_s0_t41           G_C.min_dispatch_41          1  G_C.max_dispatch_41          1
    G_C.p_s0_t41           G_C.min_production           1  G_C.max_production           1
    G_C.p_s0_t42           COST                        80  C_LV.p_balance_42            1
    G_C.p_s0_t42           G_C.min_dispatch_42          1  G_C.max_dispatch_42          1
    G_C.p_s0_t42           G_C.min_production           1  G_C.max_production           1
    G_C.p_s0_t43           COST                        80  C_LV.p_balance_43            1
    G_C.p_s0_t43           G_C.min_dispatch_43          1  G_C.max_dispatch_43          1
    G_C.p_s0_t43           G_C.min_production           1  G_C.max_production           1
    G_C.p_s0_t44           COST                        80  C_LV.p_balance_44            1
    G_C.p_s0_t44           G_C.min_dispatch_44          1  G_C.max_dispatch_44          1
    G_C.p_s0_t44           G_C.min_production           1  G_C.max_production           1
    G_C.p_s0_t45           COST                        80  C_LV.p_balance_45            1
    G_C.p_s0_t45           G_C.min_dispatch_45          1  G_C.max_dispatch_45          1
    G_C.p_s0_t45           G_C.min_production           1  G_C.max_production           1
    G_C.p_s0_t46           COST                        80  C_LV.p_balance_46            1
    G_C.p_s0_t46           G_C.min_dispatch_46          1  G_C.max_dispatch_46          1
    G_C.p_s0_t46           G_C.min_production           1  G_C.max_production           1
    G_C.p_s0_t47           COST                        80  C_LV.p_balance_47            1
    G_C.p_s0_t47           G_C.min_dispatch_47          1  G_C.max_dispatch_47          1
    G_C.p_s0_t47           G_C.min_production           1  G_C.max_production           1
    G_C.p_s0_t48           COST                        80  C_LV.p_balance_48            1
    G_C.p_s0_t48           G_C.min_dispatch_48          1  G_C.max_dispatch_48          1
    G_C.p_s0_t48           G_C.min_production           1  G_C.max_production           1
    G_C.p_s0_t49           COST                        80  C_LV.p_balance_49            1
    G_C.p_s0_t49           G_C.min_dispatch_49          1  G_C.max_dispatch_49          1
    G_C.p_s0_t49           G_C.min_production           1  G_C.max_production           1
    G_C.p_s0_t50           COST                        80  C_LV.p_balance_50            1
    G_C.p_s0_t50           G_C.min_dispatch_50          1  G_C.max_dispatch_50          1
    G_C.p_s0_t50           G_C.min_production           1  G_C.max_production           1
    G_C.p_s0_t51           COST                        80  C_LV.p_balance_51            1
    G_C.p_s0_t51           G_C.min_dispatch_51          1  G_C.max_dispatch_51          1
    G_C.p_s0_t51           G_C.min_production           1  G_C.max_production           1
    G_C.p_s0_t52           COST                        80  C_LV.p_balance_52            1
    G_C.p_s0_t52           G_C.min_dispatch_52          1  G_C.max_dispatch_52          1
    G_C.p_s0_t52           G_C.min_production           1  G_C.max_production           1
    G_C.p_s0_t53           COST                        80  C_LV.p_balance_53            1
    G_C.p_s0_t53           G_C.min_dispatch_53          1  G_C.max_dispatch_53          1
    G_C.p_s0_t53           G_C.min_production           1  G_C.max_production           1
    G_C.p_s0_t54           COST                        80  C_LV.p_balance_54            1
    G_C.p_s0_t54           G_C.min_dispatch_54          1  G_C.max_dispatch_54          1
    G_C.p_s0_t54           G_C.min_production           1  G_C.max_production           1
    G_C.p_s0_t55           COST                        80  C_LV.p_balance_55            1
    G_C.p_s0_t55           G_C.min_dispatch_55          1  G_C.max_dispatch_55          1
    G_C.p_s0_t55           G_C.min_production           1  G_C.max_production           1
    G_C.p_s0_t56           COST                        80  C_LV.p_balance_56            1
    G_C.p_s0_t56           G_C.min_dispatch_56          1  G_C.max_dispatch_56          1
    G_C.p_s0_t56           G_C.min_production           1  G_C.max_production           1
    G_C.p_s0_t57           COST                        80  C_LV.p_balance_57            1
    G_C.p_s0_t57           G_C.min_dispatch_57          1  G_C.max_dispatch_57          1
    G_C.p_s0_t57           G_C.min_production           1  G_C.max_production           1
    G_C.p_s0_t58           COST                        80  C_LV.p_balance_58            1
    G_C.p_s0_t58           G_C.min_dispatch_58          1  G_C.max_dispatch_58          1
    G_C.p_s0_t58           G_C.min_production           1  G_C.max_production           1
    G_C.p_s0_t59           COST                        80  C_LV.p_balance_59            1
    G_C.p_s0_t59           G_C.min_dispatch_59          1  G_C.max_dispatch_59          1
    G_C.p_s0_t59           G_C.min_production           1  G_C.max_production           1
    G_C.p_s0_t60           COST                        80  C_LV.p_balance_60            1
    G_C.p_s0_t60           G_C.min_dispatch_60          1  G_C.max_dispatch_60          1
    G_C.p_s0_t60           G_C.min_production           1  G_C.max_production           1
    G_C.p_s0_t61           COST                        80  C_LV.p_balance_61            1
    G_C.p_s0_t61           G_C.min_dispatch_61          1  G_C.max_dispatch_61          1
    G_C.p_s0_t61           G_C.min_production           1  G_C.max_production           1
    G_C.p_s0_t62           COST                        80  C_LV.p_balance_62            1
    G_C.p_s0_t62           G_C.min_dispatch_62          1  G_C.max_dispatch_62          1
    G_C.p_s0_t62           G_C.min_production           1  G_C.max_production           1
    G_C.p_s0_t63           COST                        80  C_LV.p_balance_63            1
    G_C.p_s0_t63           G_C.min_dispatch_63          1  G_C.max_dispatch_63          1
    G_C.p_s0_t63           G_C.min_production           1  G_C.max_production           1
    G_C.p_s0_t64           COST                        80  C_LV.p_balance_64            1
    G_C.p_s0_t64           G_C.min_dispatch_64          1  G_C.max_dispatch_64          1
    G_C.p_s0_t64           G_C.min_production           1  G_C.max_production           1
    G_C.p_s0_t65           COST                        80  C_LV.p_balance_65            1
    G_C.p_s0_t65           G_C.min_dispatch_65          1  G_C.max_dispatch_65          1
    G_C.p_s0_t65           G_C.min_production           1  G_C.max_production           1
    G_C.p_s0_t66           COST                        80  C_LV.p_balance_66            1
    G_C.p_s0_t66           G_C.min_dispatch_66          1  G_C.max_dispatch_66          1
    G_C.p_s0_t66           G_C.min_production           1  G_C.max_production           1
    G_C.p_s0_t67           COST                        80  C_LV.p_balance_67            1
    G_C.p_s0_t67           G_C.min_dispatch_67          1  G_C.max_dispatch_67          1
    G_C.p_s0_t67           G_C.min_production           1  G_C.max_production           1
    G_C.p_s0_t68           COST                        80  C_LV.p_balance_68            1
    G_C.p_s0_t68           G_C.min_dispatch_68          1  G_C.max_dispatch_68          1
    G_C.p_s0_t68           G_C.min_production           1  G_C.max_production           1
    G_C.p_s0_t69           COST                        80  C_LV.p_balance_69            1
    G_C.p_s0_t69           G_C.min_dispatch_69          1  G_C.max_dispatch_69          1
    G_C.p_s0_t69           G_C.min_production           1  G_C.max_production           1
    G_C.p_s0_t70           COST                        80  C_LV.p_balance_70            1
    G_C.p_s0_t70           G_C.min_dispatch_70          1  G_C.max_dispatch_70          1
    G_C.p_s0_t70           G_C.min_production           1  G_C.max_production           1
    G_C.p_s0_t71           COST                        80  C_LV.p_balance_71            1
    G_C.p_s0_t71           G_C.min_dispatch_71          1  G_C.max_dispatch_71          1
    G_C.p_s0_t71           G_C.min_production           1  G_C.max_production           1
    G_C.p_s0_t72           COST                        80  C_LV.p_balance_72            1
    G_C.p_s0_t72           G_C.min_dispatch_72          1  G_C.max_dispatch_72          1
    G_C.p_s0_t72           G_C.min_production           1  G_C.max_production           1
    G_C.p_s0_t73           COST                        80  C_LV.p_balance_73            1
    G_C.p_s0_t73           G_C.min_dispatch_73          1  G_C.max_dispatch_73          1
    G_C.p_s0_t73           G_C.min_production           1  G_C.max_production           1
    G_C.p_s0_t74           COST                        80  C_LV.p_balance_74            1
    G_C.p_s0_t74           G_C.min_dispatch_74          1  G_C.max_dispatch_74          1
    G_C.p_s0_t74           G_C.min_production           1  G_C.max_production           1
    G_C.p_s0_t75           COST                        80  C_LV.p_balance_75            1
    G_C.p_s0_t75           G_C.min_dispatch_75          1  G_C.max_dispatch_75          1
    G_C.p_s0_t75           G_C.min_production           1  G_C.max_production           1
    G_C.p_s0_t76           COST                        80  C_LV.p_balance_76            1
    G_C.p_s0_t76           G_C.min_dispatch_76          1  G_C.max_dispatch_76          1
    G_C.p_s0_t76           G_C.min_production           1  G_C.max_production           1
    G_C.p_s0_t77           COST                        80  C_LV.p_balance_77            1
    G_C.p_s0_t77           G_C.min_dispatch_77          1  G_C.max_dispatch_77          1
    G_C.p_s0_t77           G_C.min_production           1  G_C.max_production           1
    G_C.p_s0_t78           COST                        80  C_LV.p_balance_78            1
    G_C.p_s0_t78           G_C.min_dispatch_78          1  G_C.max_dispatch_78          1
    G_C.p_s0_t78           G_C.min_production           1  G_C.max_production           1
    G_C.p_s0_t79           COST                        80  C_LV.p_balance_79            1
    G_C.p_s0_t79           G_C.min_dispatch_79          1  G_C.max_dispatch_79          1
    G_C.p_s0_t79           G_C.min_production           1  G_C.max_production           1
    G_C.p_s0_t80           COST                        80  C_LV.p_balance_80            1
    G_C.p_s0_t80           G_C.min_dispatch_80          1  G_C.max_dispatch_80          1
    G_C.p_s0_t80           G_C.min_production           1  G_C.max_production           1
    G_C.p_s0_t81           COST                        80  C_LV.p_balance_81            1
    G_C.p_s0_t81           G_C.min_dispatch_81          1  G_C.max_dispatch_81          1
    G_C.p_s0_t81           G_C.min_production           1  G_C.max_production           1
    G_C.p_s0_t82           COST                        80  C_LV.p_balance_82            1
    G_C.p_s0_t82           G_C.min_dispatch_82          1  G_C.max_dispatch_82          1
    G_C.p_s0_t82           G_C.min_production           1  G_C.max_production           1
    G_C.p_s0_t83           COST                        80  C_LV.p_balance_83            1
    G_C.p_s0_t83           G_C.min_dispatch_83          1  G_C.max_dispatch_83          1
    G_C.p_s0_t83           G_C.min_production           1  G_C.max_production           1
    G_C.p_s0_t84           COST                        80  C_LV.p_balance_84            1
    G_C.p_s0_t84           G_C.min_dispatch_84          1  G_C.max_dispatch_84          1
    G_C.p_s0_t84           G_C.min_production           1  G_C.max_production           1
    G_C.p_s0_t85           COST                        80  C_LV.p_balance_85            1
    G_C.p_s0_t85           G_C.min_dispatch_85          1  G_C.max_dispatch_85          1
    G_C.p_s0_t85           G_C.min_production           1  G_C.max_production           1
    G_C.p_s0_t86           COST                        80  C_LV.p_balance_86            1
    G_C.p_s0_t86           G_C.min_dispatch_86          1  G_C.max_dispatch_86          1
    G_C.p_s0_t86           G_C.min_production           1  G_C.max_production           1
    G_C.p_s0_t87           COST                        80  C_LV.p_balance_87            1
    G_C.p_s0_t87           G_C.min_dispatch_87          1  G_C.max_dispatch_87          1
    G_C.p_s0_t87           G_C.min_production           1  G_C.max_production           1
    G_C.p_s0_t88           COST                        80  C_LV.p_balance_88            1
    G_C.p_s0_t88           G_C.min_dispatch_88          1  G_C.max_dispatch_88          1
    G_C.p_s0_t88           G_C.min_production           1  G_C.max_production           1
    G_C.p_s0_t89           COST                        80  C_LV.p_balance_89            1
    G_C.p_s0_t89           G_C.min_dispatch_89          1  G_C.max_dispatch_89          1
    G_C.p_s0_t89           G_C.min_production           1  G_C.max_production           1
    G_C.p_s0_t90           COST                        80  C_LV.p_balance_90            1
    G_C.p_s0_t90           G_C.min_dispatch_90          1  G_C.max_dispatch_90          1
    G_C.p_s0_t90           G_C.min_production           1  G_C.max_production           1
    G_C.p_s0_t91           COST                        80  C_LV.p_balance_91            1
    G_C.p_s0_t91           G_C.min_dispatch_91          1  G_C.max_dispatch_91          1
    G_C.p_s0_t91           G_C.min_production           1  G_C.max_production           1
    G_C.p_s0_t92           COST                        80  C_LV.p_balance_92            1
    G_C.p_s0_t92           G_C.min_dispatch_92          1  G_C.max_dispatch_92          1
    G_C.p_s0_t92           G_C.min_production           1  G_C.max_production           1
    G_C.p_s0_t93           COST                        80  C_LV.p_balance_93            1
    G_C.p_s0_t93           G_C.min_dispatch_93          1  G_C.max_dispatch_93          1
    G_C.p_s0_t93           G_C.min_production           1  G_C.max_production           1
    G_C.p_s0_t94           COST                        80  C_LV.p_balance_94            1
    G_C.p_s0_t94           G_C.min_dispatch_94          1  G_C.max_dispatch_94          1
    G_C.p_s0_t94           G_C.min_production           1  G_C.max_production           1
    G_C.p_s0_t95           COST                        80  C_LV.p_balance_95            1
    G_C.p_s0_t95           G_C.min_dispatch_95          1  G_C.max_dispatch_95          1
    G_C.p_s0_t95           G_C.min_production           1  G_C.max_production           1
    G_C.p_s0_t96           COST                        80  C_LV.p_balance_96            1
    G_C.p_s0_t96           G_C.min_dispatch_96          1  G_C.max_dispatch_96          1
    G_C.p_s0_t96           G_C.min_production           1  G_C.max_production           1
    G_C.p_s0_t97           COST                        80  C_LV.p_balance_97            1
    G_C.p_s0_t97           G_C.min_dispatch_97          1  G_C.max_dispatch_97          1
    G_C.p_s0_t97           G_C.min_production           1  G_C.max_production           1
    G_C.p_s0_t98           COST                        80  C_LV.p_balance_98            1
    G_C.p_s0_t98           G_C.min_dispatch_98          1  G_C.max_dispatch_98          1
    G_C.p_s0_t98           G_C.min_production           1  G_C.max_production           1
    G_C.p_s0_t99           COST                        80  C_LV.p_balance_99            1
    G_C.p_s0_t99           G_C.min_dispatch_99          1  G_C.max_dispatch_99          1
    G_C.p_s0_t99           G_C.min_production           1  G_C.max_production           1
    G_C.p_s0_t100          COST                        80  C_LV.p_balance_100           1
    G_C.p_s0_t100          G_C.min_dispatch_100         1  G_C.max_dispatch_100         1
    G_C.p_s0_t100          G_C.min_production           1  G_C.max_production           1
    G_C.p_s0_t101          COST                        80  C_LV.p_balance_101           1
    G_C.p_s0_t101          G_C.min_dispatch_101         1  G_C.max_dispatch_101         1
    G_C.p_s0_t101          G_C.min_production           1  G_C.max_production           1
    G_C.p_s0_t102          COST                        80  C_LV.p_balance_102           1
    G_C.p_s0_t102          G_C.min_dispatch_102         1  G_C.max_dispatch_102         1
    G_C.p_s0_t102          G_C.min_production           1  G_C.max_production           1
    G_C.p_s0_t103          COST                        80  C_LV.p_balance_103           1
    G_C.p_s0_t103          G_C.min_dispatch_103         1  G_C.max_dispatch_103         1
    G_C.p_s0_t103          G_C.min_production           1  G_C.max_production           1
    G_C.p_s0_t104          COST                        80  C_LV.p_balance_104           1
    G_C.p_s0_t104          G_C.min_dispatch_104         1  G_C.max_dispatch_104         1
    G_C.p_s0_t104          G_C.min_production           1  G_C.max_production           1
    G_C.p_s0_t105          COST                        80  C_LV.p_balance_105           1
    G_C.p_s0_t105          G_C.min_dispatch_105         1  G_C.max_dispatch_105         1
    G_C.p_s0_t105          G_C.min_production           1  G_C.max_production           1
    G_C.p_s0_t106          COST                        80  C_LV.p_balance_106           1
    G_C.p_s0_t106          G_C.min_dispatch_106         1  G_C.max_dispatch_106         1
    G_C.p_s0_t106          G_C.min_production           1  G_C.max_production           1
    G_C.p_s0_t107          COST                        80  C_LV.p_balance_107           1
    G_C.p_s0_t107          G_C.min_dispatch_107         1  G_C.max_dispatch_107         1
    G_C.p_s0_t107          G_C.min_production           1  G_C.max_production           1
    G_C.p_s0_t108          COST                        80  C_LV.p_balance_108           1
    G_C.p_s0_t108          G_C.min_dispatch_108         1  G_C.max_dispatch_108         1
    G_C.p_s0_t108          G_C.min_production           1  G_C.max_production           1
    G_C.p_s0_t109          COST                        80  C_LV.p_balance_109           1
    G_C.p_s0_t109          G_C.min_dispatch_109         1  G_C.max_dispatch_109         1
    G_C.p_s0_t109          G_C.min_production           1  G_C.max_production           1
    G_C.p_s0_t110          COST                        80  C_LV.p_balance_110           1
    G_C.p_s0_t110          G_C.min_dispatch_110         1  G_C.max_dispatch_110         1
    G_C.p_s0_t110          G_C.min_production           1  G_C.max_production           1
    G_C.p_s0_t111          COST                        80  C_LV.p_balance_111           1
    G_C.p_s0_t111          G_C.min_dispatch_111         1  G_C.max_dispatch_111         1
    G_C.p_s0_t111          G_C.min_production           1  G_C.max_production           1
    G_C.p_s0_t112          COST                        80  C_LV.p_balance_112           1
    G_C.p_s0_t112          G_C.min_dispatch_112         1  G_C.max_dispatch_112         1
    G_C.p_s0_t112          G_C.min_production           1  G_C.max_production           1
    G_C.p_s0_t113          COST                        80  C_LV.p_balance_113           1
    G_C.p_s0_t113          G_C.min_dispatch_113         1  G_C.max_dispatch_113         1
    G_C.p_s0_t113          G_C.min_production           1  G_C.max_production           1
    G_C.p_s0_t114          COST                        80  C_LV.p_balance_114           1
    G_C.p_s0_t114          G_C.min_dispatch_114         1  G_C.max_dispatch_114         1
    G_C.p_s0_t114          G_C.min_production           1  G_C.max_production           1
    G_C.p_s0_t115          COST                        80  C_LV.p_balance_115           1
    G_C.p_s0_t115          G_C.min_dispatch_115         1  G_C.max_dispatch_115         1
    G_C.p_s0_t115          G_C.min_production           1  G_C.max_production           1
    G_C.p_s0_t116          COST                        80  C_LV.p_balance_116           1
    G_C.p_s0_t116          G_C.min_dispatch_116         1  G_C.max_dispatch_116         1
    G_C.p_s0_t116          G_C.min_production           1  G_C.max_production           1
    G_C.p_s0_t117          COST                        80  C_LV.p_balance_117           1
    G_C.p_s0_t117          G_C.min_dispatch_117         1  G_C.max_dispatch_117         1
    G_C.p_s0_t117          G_C.min_production           1  G_C.max_production           1
    G_C.p_s0_t118          COST                        80  C_LV.p_balance_118           1
    G_C.p_s0_t118          G_C.min_dispatch_118         1  G_C.max_dispatch_118         1
    G_C.p_s0_t118          G_C.min_production           1  G_C.max_production           1
    G_C.p_s0_t119          COST                        80  C_LV.p_balance_119           1
    G_C.p_s0_t119          G_C.min_dispatch_119         1  G_C.max_dispatch_119         1
    G_C.p_s0_t119          G_C.min_production           1  G_C.max_production           1
    G_C.p_s0_t120          COST                        80  C_LV.p_balance_120           1
    G_C.p_s0_t120          G_C.min_dispatch_120         1  G_C.max_dispatch_120         1
    G_C.p_s0_t120          G_C.min_production           1  G_C.max_production           1
    G_C.p_s0_t121          COST                        80  C_LV.p_balance_121           1
    G_C.p_s0_t121          G_C.min_dispatch_121         1  G_C.max_dispatch_121         1
    G_C.p_s0_t121          G_C.min_production           1  G_C.max_production           1
    G_C.p_s0_t122          COST                        80  C_LV.p_balance_122           1
    G_C.p_s0_t122          G_C.min_dispatch_122         1  G_C.max_dispatch_122         1
    G_C.p_s0_t122          G_C.min_production           1  G_C.max_production           1
    G_C.p_s0_t123          COST                        80  C_LV.p_balance_123           1
    G_C.p_s0_t123          G_C.min_dispatch_123         1  G_C.max_dispatch_123         1
    G_C.p_s0_t123          G_C.min_production           1  G_C.max_production           1
    G_C.p_s0_t124          COST                        80  C_LV.p_balance_124           1
    G_C.p_s0_t124          G_C.min_dispatch_124         1  G_C.max_dispatch_124         1
    G_C.p_s0_t124          G_C.min_production           1  G_C.max_production           1
    G_C.p_s0_t125          COST                        80  C_LV.p_balance_125           1
    G_C.p_s0_t125          G_C.min_dispatch_125         1  G_C.max_dispatch_125         1
    G_C.p_s0_t125          G_C.min_production           1  G_C.max_production           1
    G_C.p_s0_t126          COST                        80  C_LV.p_balance_126           1
    G_C.p_s0_t126          G_C.min_dispatch_126         1  G_C.max_dispatch_126         1
    G_C.p_s0_t126          G_C.min_production           1  G_C.max_production           1
    G_C.p_s0_t127          COST                        80  C_LV.p_balance_127           1
    G_C.p_s0_t127          G_C.min_dispatch_127         1  G_C.max_dispatch_127         1
    G_C.p_s0_t127          G_C.min_production           1  G_C.max_production           1
    G_C.p_s0_t128          COST                        80  C_LV.p_balance_128           1
    G_C.p_s0_t128          G_C.min_dispatch_128         1  G_C.max_dispatch_128         1
    G_C.p_s0_t128          G_C.min_production           1  G_C.max_production           1
    G_C.p_s0_t129          COST                        80  C_LV.p_balance_129           1
    G_C.p_s0_t129          G_C.min_dispatch_129         1  G_C.max_dispatch_129         1
    G_C.p_s0_t129          G_C.min_production           1  G_C.max_production           1
    G_C.p_s0_t130          COST                        80  C_LV.p_balance_130           1
    G_C.p_s0_t130          G_C.min_dispatch_130         1  G_C.max_dispatch_130         1
    G_C.p_s0_t130          G_C.min_production           1  G_C.max_production           1
    G_C.p_s0_t131          COST                        80  C_LV.p_balance_131           1
    G_C.p_s0_t131          G_C.min_dispatch_131         1  G_C.max_dispatch_131         1
    G_C.p_s0_t131          G_C.min_production           1  G_C.max_production           1
    G_C.p_s0_t132          COST                        80  C_LV.p_balance_132           1
    G_C.p_s0_t132          G_C.min_dispatch_132         1  G_C.max_dispatch_132         1
    G_C.p_s0_t132          G_C.min_production           1  G_C.max_production           1
    G_C.p_s0_t133          COST                        80  C_LV.p_balance_133           1
    G_C.p_s0_t133          G_C.min_dispatch_133         1  G_C.max_dispatch_133         1
    G_C.p_s0_t133          G_C.min_production           1  G_C.max_production           1
    G_C.p_s0_t134          COST                        80  C_LV.p_balance_134           1
    G_C.p_s0_t134          G_C.min_dispatch_134         1  G_C.max_dispatch_134         1
    G_C.p_s0_t134          G_C.min_production           1  G_C.max_production           1
    G_C.p_s0_t135          COST                        80  C_LV.p_balance_135           1
    G_C.p_s0_t135          G_C.min_dispatch_135         1  G_C.max_dispatch_135         1
    G_C.p_s0_t135          G_C.min_production           1  G_C.max_production           1
    G_C.p_s0_t136          COST                        80  C_LV.p_balance_136           1
    G_C.p_s0_t136          G_C.min_dispatch_136         1  G_C.max_dispatch_136         1
    G_C.p_s0_t136          G_C.min_production           1  G_C.max_production           1
    G_C.p_s0_t137          COST                        80  C_LV.p_balance_137           1
    G_C.p_s0_t137          G_C.min_dispatch_137         1  G_C.max_dispatch_137         1
    G_C.p_s0_t137          G_C.min_production           1  G_C.max_production           1
    G_C.p_s0_t138          COST                        80  C_LV.p_balance_138           1
    G_C.p_s0_t138          G_C.min_dispatch_138         1  G_C.max_dispatch_138         1
    G_C.p_s0_t138          G_C.min_production           1  G_C.max_production           1
    G_C.p_s0_t139          COST                        80  C_LV.p_balance_139           1
    G_C.p_s0_t139          G_C.min_dispatch_139         1  G_C.max_dispatch_139         1
    G_C.p_s0_t139          G_C.min_production           1  G_C.max_production           1
    G_C.p_s0_t140          COST                        80  C_LV.p_balance_140           1
    G_C.p_s0_t140          G_C.min_dispatch_140         1  G_C.max_dispatch_140         1
    G_C.p_s0_t140          G_C.min_production           1  G_C.max_production           1
    G_C.p_s0_t141          COST                        80  C_LV.p_balance_141           1
    G_C.p_s0_t141          G_C.min_dispatch_141         1  G_C.max_dispatch_141         1
    G_C.p_s0_t141          G_C.min_production           1  G_C.max_production           1
    G_C.p_s0_t142          COST                        80  C_LV.p_balance_142           1
    G_C.p_s0_t142          G_C.min_dispatch_142         1  G_C.max_dispatch_142         1
    G_C.p_s0_t142          G_C.min_production           1  G_C.max_production           1
    G_C.p_s0_t143          COST                        80  C_LV.p_balance_143           1
    G_C.p_s0_t143          G_C.min_dispatch_143         1  G_C.max_dispatch_143         1
    G_C.p_s0_t143          G_C.min_production           1  G_C.max_production           1
    G_C.p_s0_t144          COST                        80  C_LV.p_balance_144           1
    G_C.p_s0_t144          G_C.min_dispatch_144         1  G_C.max_dispatch_144         1
    G_C.p_s0_t144          G_C.min_production           1  G_C.max_production           1
    G_C.p_s0_t145          COST                        80  C_LV.p_balance_145           1
    G_C.p_s0_t145          G_C.min_dispatch_145         1  G_C.max_dispatch_145         1
    G_C.p_s0_t145          G_C.min_production           1  G_C.max_production           1
    G_C.p_s0_t146          COST                        80  C_LV.p_balance_146           1
    G_C.p_s0_t146          G_C.min_dispatch_146         1  G_C.max_dispatch_146         1
    G_C.p_s0_t146          G_C.min_production           1  G_C.max_production           1
    G_C.p_s0_t147          COST                        80  C_LV.p_balance_147           1
    G_C.p_s0_t147          G_C.min_dispatch_147         1  G_C.max_dispatch_147         1
    G_C.p_s0_t147          G_C.min_production           1  G_C.max_production           1
    G_C.p_s0_t148          COST                        80  C_LV.p_balance_148           1
    G_C.p_s0_t148          G_C.min_dispatch_148         1  G_C.max_dispatch_148         1
    G_C.p_s0_t148          G_C.min_production           1  G_C.max_production           1
    G_C.p_s0_t149          COST                        80  C_LV.p_balance_149           1
    G_C.p_s0_t149          G_C.min_dispatch_149         1  G_C.max_dispatch_149         1
    G_C.p_s0_t149          G_C.min_production           1  G_C.max_production           1
    G_C.p_s0_t150          COST                        80  C_LV.p_balance_150           1
    G_C.p_s0_t150          G_C.min_dispatch_150         1  G_C.max_dispatch_150         1
    G_C.p_s0_t150          G_C.min_production           1  G_C.max_production           1
    G_C.p_s0_t151          COST                        80  C_LV.p_balance_151           1
    G_C.p_s0_t151          G_C.min_dispatch_151         1  G_C.max_dispatch_151         1
    G_C.p_s0_t151          G_C.min_production           1  G_C.max_production           1
    G_C.p_s0_t152          COST                        80  C_LV.p_balance_152           1
    G_C.p_s0_t152          G_C.min_dispatch_152         1  G_C.max_dispatch_152         1
    G_C.p_s0_t152          G_C.min_production           1  G_C.max_production           1
    G_C.p_s0_t153          COST                        80  C_LV.p_balance_153           1
    G_C.p_s0_t153          G_C.min_dispatch_153         1  G_C.max_dispatch_153         1
    G_C.p_s0_t153          G_C.min_production           1  G_C.max_production           1
    G_C.p_s0_t154          COST                        80  C_LV.p_balance_154           1
    G_C.p_s0_t154          G_C.min_dispatch_154         1  G_C.max_dispatch_154         1
    G_C.p_s0_t154          G_C.min_production           1  G_C.max_production           1
    G_C.p_s0_t155          COST                        80  C_LV.p_balance_155           1
    G_C.p_s0_t155          G_C.min_dispatch_155         1  G_C.max_dispatch_155         1
    G_C.p_s0_t155          G_C.min_production           1  G_C.max_production           1
    G_C.p_s0_t156          COST                        80  C_LV.p_balance_156           1
    G_C.p_s0_t156          G_C.min_dispatch_156         1  G_C.max_dispatch_156         1
    G_C.p_s0_t156          G_C.min_production           1  G_C.max_production           1
    G_C.p_s0_t157          COST                        80  C_LV.p_balance_157           1
    G_C.p_s0_t157          G_C.min_dispatch_157         1  G_C.max_dispatch_157         1
    G_C.p_s0_t157          G_C.min_production           1  G_C.max_production           1
    G_C.p_s0_t158          COST                        80  C_LV.p_balance_158           1
    G_C.p_s0_t158          G_C.min_dispatch_158         1  G_C.max_dispatch_158         1
    G_C.p_s0_t158          G_C.min_production           1  G_C.max_production           1
    G_C.p_s0_t159          COST                        80  C_LV.p_balance_159           1
    G_C.p_s0_t159          G_C.min_dispatch_159         1  G_C.max_dispatch_159         1
    G_C.p_s0_t159          G_C.min_production           1  G_C.max_production           1
    G_C.p_s0_t160          COST                        80  C_LV.p_balance_160           1
    G_C.p_s0_t160          G_C.min_dispatch_160         1  G_C.max_dispatch_160         1
    G_C.p_s0_t160          G_C.min_production           1  G_C.max_production           1
    G_C.p_s0_t161          COST                        80  C_LV.p_balance_161           1
    G_C.p_s0_t161          G_C.min_dispatch_161         1  G_C.max_dispatch_161         1
    G_C.p_s0_t161          G_C.min_production           1  G_C.max_production           1
    G_C.p_s0_t162          COST                        80  C_LV.p_balance_162           1
    G_C.p_s0_t162          G_C.min_dispatch_162         1  G_C.max_dispatch_162         1
    G_C.p_s0_t162          G_C.min_production           1  G_C.max_production           1
    G_C.p_s0_t163          COST                        80  C_LV.p_balance_163           1
    G_C.p_s0_t163          G_C.min_dispatch_163         1  G_C.max_dispatch_163         1
    G_C.p_s0_t163          G_C.min_production           1  G_C.max_production           1
    G_C.p_s0_t164          COST                        80  C_LV.p_balance_164           1
    G_C.p_s0_t164          G_C.min_dispatch_164         1  G_C.max_dispatch_164         1
    G_C.p_s0_t164          G_C.min_production           1  G_C.max_production           1
    G_C.p_s0_t165          COST                        80  C_LV.p_balance_165           1
    G_C.p_s0_t165          G_C.min_dispatch_165         1  G_C.max_dispatch_165         1
    G_C.p_s0_t165          G_C.min_production           1  G_C.max_production           1
    G_C.p_s0_t166          COST                        80  C_LV.p_balance_166           1
    G_C.p_s0_t166          G_C.min_dispatch_166         1  G_C.max_dispatch_166         1
    G_C.p_s0_t166          G_C.min_production           1  G_C.max_production           1
    G_C.p_s0_t167          COST                        80  C_LV.p_balance_167           1
    G_C.p_s0_t167          G_C.min_dispatch_167         1  G_C.max_dispatch_167         1
    G_C.p_s0_t167          G_C.min_production           1  G_C.max_production           1
    T_AB.s_nom_s0_t0       T_AB.upper_flow_0           -1  T_AB.lower_flow_0            1
    T_AB.s_nom_s0_t1       T_AB.upper_flow_1           -1  T_AB.lower_flow_1            1
    T_AB.s_nom_s0_t2       T_AB.upper_flow_2           -1  T_AB.lower_flow_2            1
    T_AB.s_nom_s0_t3       T_AB.upper_flow_3           -1  T_AB.lower_flow_3            1
    T_AB.s_nom_s0_t4       T_AB.upper_flow_4           -1  T_AB.lower_flow_4            1
    T_AB.s_nom_s0_t5       T_AB.upper_flow_5           -1  T_AB.lower_flow_5            1
    T_AB.s_nom_s0_t6       T_AB.upper_flow_6           -1  T_AB.lower_flow_6            1
    T_AB.s_nom_s0_t7       T_AB.upper_flow_7           -1  T_AB.lower_flow_7            1
    T_AB.s_nom_s0_t8       T_AB.upper_flow_8           -1  T_AB.lower_flow_8            1
    T_AB.s_nom_s0_t9       T_AB.upper_flow_9           -1  T_AB.lower_flow_9            1
    T_AB.s_nom_s0_t10      T_AB.upper_flow_10          -1  T_AB.lower_flow_10           1
    T_AB.s_nom_s0_t11      T_AB.upper_flow_11          -1  T_AB.lower_flow_11           1
    T_AB.s_nom_s0_t12      T_AB.upper_flow_12          -1  T_AB.lower_flow_12           1
    T_AB.s_nom_s0_t13      T_AB.upper_flow_13          -1  T_AB.lower_flow_13           1
    T_AB.s_nom_s0_t14      T_AB.upper_flow_14          -1  T_AB.lower_flow_14           1
    T_AB.s_nom_s0_t15      T_AB.upper_flow_15          -1  T_AB.lower_flow_15           1
    T_AB.s_nom_s0_t16      T_AB.upper_flow_16          -1  T_AB.lower_flow_16           1
    T_AB.s_nom_s0_t17      T_AB.upper_flow_17          -1  T_AB.lower_flow_17           1
    T_AB.s_nom_s0_t18      T_AB.upper_flow_18          -1  T_AB.lower_flow_18           1
    T_AB.s_nom_s0_t19      T_AB.upper_flow_19          -1  T_AB.lower_flow_19           1
    T_AB.s_nom_s0_t20      T_AB.upper_flow_20          -1  T_AB.lower_flow_20           1
    T_AB.s_nom_s0_t21      T_AB.upper_flow_21          -1  T_AB.lower_flow_21           1
    T_AB.s_nom_s0_t22      T_AB.upper_flow_22          -1  T_AB.lower_flow_22           1
    T_AB.s_nom_s0_t23      T_AB.upper_flow_23          -1  T_AB.lower_flow_23           1
    T_AB.s_nom_s0_t24      T_AB.upper_flow_24          -1  T_AB.lower_flow_24           1
    T_AB.s_nom_s0_t25      T_AB.upper_flow_25          -1  T_AB.lower_flow_25           1
    T_AB.s_nom_s0_t26      T_AB.upper_flow_26          -1  T_AB.lower_flow_26           1
    T_AB.s_nom_s0_t27      T_AB.upper_flow_27          -1  T_AB.lower_flow_27           1
    T_AB.s_nom_s0_t28      T_AB.upper_flow_28          -1  T_AB.lower_flow_28           1
    T_AB.s_nom_s0_t29      T_AB.upper_flow_29          -1  T_AB.lower_flow_29           1
    T_AB.s_nom_s0_t30      T_AB.upper_flow_30          -1  T_AB.lower_flow_30           1
    T_AB.s_nom_s0_t31      T_AB.upper_flow_31          -1  T_AB.lower_flow_31           1
    T_AB.s_nom_s0_t32      T_AB.upper_flow_32          -1  T_AB.lower_flow_32           1
    T_AB.s_nom_s0_t33      T_AB.upper_flow_33          -1  T_AB.lower_flow_33           1
    T_AB.s_nom_s0_t34      T_AB.upper_flow_34          -1  T_AB.lower_flow_34           1
    T_AB.s_nom_s0_t35      T_AB.upper_flow_35          -1  T_AB.lower_flow_35           1
    T_AB.s_nom_s0_t36      T_AB.upper_flow_36          -1  T_AB.lower_flow_36           1
    T_AB.s_nom_s0_t37      T_AB.upper_flow_37          -1  T_AB.lower_flow_37           1
    T_AB.s_nom_s0_t38      T_AB.upper_flow_38          -1  T_AB.lower_flow_38           1
    T_AB.s_nom_s0_t39      T_AB.upper_flow_39          -1  T_AB.lower_flow_39           1
    T_AB.s_nom_s0_t40      T_AB.upper_flow_40          -1  T_AB.lower_flow_40           1
    T_AB.s_nom_s0_t41      T_AB.upper_flow_41          -1  T_AB.lower_flow_41           1
    T_AB.s_nom_s0_t42      T_AB.upper_flow_42          -1  T_AB.lower_flow_42           1
    T_AB.s_nom_s0_t43      T_AB.upper_flow_43          -1  T_AB.lower_flow_43           1
    T_AB.s_nom_s0_t44      T_AB.upper_flow_44          -1  T_AB.lower_flow_44           1
    T_AB.s_nom_s0_t45      T_AB.upper_flow_45          -1  T_AB.lower_flow_45           1
    T_AB.s_nom_s0_t46      T_AB.upper_flow_46          -1  T_AB.lower_flow_46           1
    T_AB.s_nom_s0_t47      T_AB.upper_flow_47          -1  T_AB.lower_flow_47           1
    T_AB.s_nom_s0_t48      T_AB.upper_flow_48          -1  T_AB.lower_flow_48           1
    T_AB.s_nom_s0_t49      T_AB.upper_flow_49          -1  T_AB.lower_flow_49           1
    T_AB.s_nom_s0_t50      T_AB.upper_flow_50          -1  T_AB.lower_flow_50           1
    T_AB.s_nom_s0_t51      T_AB.upper_flow_51          -1  T_AB.lower_flow_51           1
    T_AB.s_nom_s0_t52      T_AB.upper_flow_52          -1  T_AB.lower_flow_52           1
    T_AB.s_nom_s0_t53      T_AB.upper_flow_53          -1  T_AB.lower_flow_53           1
    T_AB.s_nom_s0_t54      T_AB.upper_flow_54          -1  T_AB.lower_flow_54           1
    T_AB.s_nom_s0_t55      T_AB.upper_flow_55          -1  T_AB.lower_flow_55           1
    T_AB.s_nom_s0_t56      T_AB.upper_flow_56          -1  T_AB.lower_flow_56           1
    T_AB.s_nom_s0_t57      T_AB.upper_flow_57          -1  T_AB.lower_flow_57           1
    T_AB.s_nom_s0_t58      T_AB.upper_flow_58          -1  T_AB.lower_flow_58           1
    T_AB.s_nom_s0_t59      T_AB.upper_flow_59          -1  T_AB.lower_flow_59           1
    T_AB.s_nom_s0_t60      T_AB.upper_flow_60          -1  T_AB.lower_flow_60           1
    T_AB.s_nom_s0_t61      T_AB.upper_flow_61          -1  T_AB.lower_flow_61           1
    T_AB.s_nom_s0_t62      T_AB.upper_flow_62          -1  T_AB.lower_flow_62           1
    T_AB.s_nom_s0_t63      T_AB.upper_flow_63          -1  T_AB.lower_flow_63           1
    T_AB.s_nom_s0_t64      T_AB.upper_flow_64          -1  T_AB.lower_flow_64           1
    T_AB.s_nom_s0_t65      T_AB.upper_flow_65          -1  T_AB.lower_flow_65           1
    T_AB.s_nom_s0_t66      T_AB.upper_flow_66          -1  T_AB.lower_flow_66           1
    T_AB.s_nom_s0_t67      T_AB.upper_flow_67          -1  T_AB.lower_flow_67           1
    T_AB.s_nom_s0_t68      T_AB.upper_flow_68          -1  T_AB.lower_flow_68           1
    T_AB.s_nom_s0_t69      T_AB.upper_flow_69          -1  T_AB.lower_flow_69           1
    T_AB.s_nom_s0_t70      T_AB.upper_flow_70          -1  T_AB.lower_flow_70           1
    T_AB.s_nom_s0_t71      T_AB.upper_flow_71          -1  T_AB.lower_flow_71           1
    T_AB.s_nom_s0_t72      T_AB.upper_flow_72          -1  T_AB.lower_flow_72           1
    T_AB.s_nom_s0_t73      T_AB.upper_flow_73          -1  T_AB.lower_flow_73           1
    T_AB.s_nom_s0_t74      T_AB.upper_flow_74          -1  T_AB.lower_flow_74           1
    T_AB.s_nom_s0_t75      T_AB.upper_flow_75          -1  T_AB.lower_flow_75           1
    T_AB.s_nom_s0_t76      T_AB.upper_flow_76          -1  T_AB.lower_flow_76           1
    T_AB.s_nom_s0_t77      T_AB.upper_flow_77          -1  T_AB.lower_flow_77           1
    T_AB.s_nom_s0_t78      T_AB.upper_flow_78          -1  T_AB.lower_flow_78           1
    T_AB.s_nom_s0_t79      T_AB.upper_flow_79          -1  T_AB.lower_flow_79           1
    T_AB.s_nom_s0_t80      T_AB.upper_flow_80          -1  T_AB.lower_flow_80           1
    T_AB.s_nom_s0_t81      T_AB.upper_flow_81          -1  T_AB.lower_flow_81           1
    T_AB.s_nom_s0_t82      T_AB.upper_flow_82          -1  T_AB.lower_flow_82           1
    T_AB.s_nom_s0_t83      T_AB.upper_flow_83          -1  T_AB.lower_flow_83           1
    T_AB.s_nom_s0_t84      T_AB.upper_flow_84          -1  T_AB.lower_flow_84           1
    T_AB.s_nom_s0_t85      T_AB.upper_flow_85          -1  T_AB.lower_flow_85           1
    T_AB.s_nom_s0_t86      T_AB.upper_flow_86          -1  T_AB.lower_flow_86           1
    T_AB.s_nom_s0_t87      T_AB.upper_flow_87          -1  T_AB.lower_flow_87           1
    T_AB.s_nom_s0_t88      T_AB.upper_flow_88          -1  T_AB.lower_flow_88           1
    T_AB.s_nom_s0_t89      T_AB.upper_flow_89          -1  T_AB.lower_flow_89           1
    T_AB.s_nom_s0_t90      T_AB.upper_flow_90          -1  T_AB.lower_flow_90           1
    T_AB.s_nom_s0_t91      T_AB.upper_flow_91          -1  T_AB.lower_flow_91           1
    T_AB.s_nom_s0_t92      T_AB.upper_flow_92          -1  T_AB.lower_flow_92           1
    T_AB.s_nom_s0_t93      T_AB.upper_flow_93          -1  T_AB.lower_flow_93           1
    T_AB.s_nom_s0_t94      T_AB.upper_flow_94          -1  T_AB.lower_flow_94           1
    T_AB.s_nom_s0_t95      T_AB.upper_flow_95          -1  T_AB.lower_flow_95           1
    T_AB.s_nom_s0_t96      T_AB.upper_flow_96          -1  T_AB.lower_flow_96           1
    T_AB.s_nom_s0_t97      T_AB.upper_flow_97          -1  T_AB.lower_flow_97           1
    T_AB.s_nom_s0_t98      T_AB.upper_flow_98          -1  T_AB.lower_flow_98           1
    T_AB.s_nom_s0_t99      T_AB.upper_flow_99          -1  T_AB.lower_flow_99           1
    T_AB.s_nom_s0_t100     T_AB.upper_flow_100         -1  T_AB.lower_flow_100          1
    T_AB.s_nom_s0_t101     T_AB.upper_flow_101         -1  T_AB.lower_flow_101          1
    T_AB.s_nom_s0_t102     T_AB.upper_flow_102         -1  T_AB.lower_flow_102          1
    T_AB.s_nom_s0_t103     T_AB.upper_flow_103         -1  T_AB.lower_flow_103          1
    T_AB.s_nom_s0_t104     T_AB.upper_flow_104         -1  T_AB.lower_flow_104          1
    T_AB.s_nom_s0_t105     T_AB.upper_flow_105         -1  T_AB.lower_flow_105          1
    T_AB.s_nom_s0_t106     T_AB.upper_flow_106         -1  T_AB.lower_flow_106          1
    T_AB.s_nom_s0_t107     T_AB.upper_flow_107         -1  T_AB.lower_flow_107          1
    T_AB.s_nom_s0_t108     T_AB.upper_flow_108         -1  T_AB.lower_flow_108          1
    T_AB.s_nom_s0_t109     T_AB.upper_flow_109         -1  T_AB.lower_flow_109          1
    T_AB.s_nom_s0_t110     T_AB.upper_flow_110         -1  T_AB.lower_flow_110          1
    T_AB.s_nom_s0_t111     T_AB.upper_flow_111         -1  T_AB.lower_flow_111          1
    T_AB.s_nom_s0_t112     T_AB.upper_flow_112         -1  T_AB.lower_flow_112          1
    T_AB.s_nom_s0_t113     T_AB.upper_flow_113         -1  T_AB.lower_flow_113          1
    T_AB.s_nom_s0_t114     T_AB.upper_flow_114         -1  T_AB.lower_flow_114          1
    T_AB.s_nom_s0_t115     T_AB.upper_flow_115         -1  T_AB.lower_flow_115          1
    T_AB.s_nom_s0_t116     T_AB.upper_flow_116         -1  T_AB.lower_flow_116          1
    T_AB.s_nom_s0_t117     T_AB.upper_flow_117         -1  T_AB.lower_flow_117          1
    T_AB.s_nom_s0_t118     T_AB.upper_flow_118         -1  T_AB.lower_flow_118          1
    T_AB.s_nom_s0_t119     T_AB.upper_flow_119         -1  T_AB.lower_flow_119          1
    T_AB.s_nom_s0_t120     T_AB.upper_flow_120         -1  T_AB.lower_flow_120          1
    T_AB.s_nom_s0_t121     T_AB.upper_flow_121         -1  T_AB.lower_flow_121          1
    T_AB.s_nom_s0_t122     T_AB.upper_flow_122         -1  T_AB.lower_flow_122          1
    T_AB.s_nom_s0_t123     T_AB.upper_flow_123         -1  T_AB.lower_flow_123          1
    T_AB.s_nom_s0_t124     T_AB.upper_flow_124         -1  T_AB.lower_flow_124          1
    T_AB.s_nom_s0_t125     T_AB.upper_flow_125         -1  T_AB.lower_flow_125          1
    T_AB.s_nom_s0_t126     T_AB.upper_flow_126         -1  T_AB.lower_flow_126          1
    T_AB.s_nom_s0_t127     T_AB.upper_flow_127         -1  T_AB.lower_flow_127          1
    T_AB.s_nom_s0_t128     T_AB.upper_flow_128         -1  T_AB.lower_flow_128          1
    T_AB.s_nom_s0_t129     T_AB.upper_flow_129         -1  T_AB.lower_flow_129          1
    T_AB.s_nom_s0_t130     T_AB.upper_flow_130         -1  T_AB.lower_flow_130          1
    T_AB.s_nom_s0_t131     T_AB.upper_flow_131         -1  T_AB.lower_flow_131          1
    T_AB.s_nom_s0_t132     T_AB.upper_flow_132         -1  T_AB.lower_flow_132          1
    T_AB.s_nom_s0_t133     T_AB.upper_flow_133         -1  T_AB.lower_flow_133          1
    T_AB.s_nom_s0_t134     T_AB.upper_flow_134         -1  T_AB.lower_flow_134          1
    T_AB.s_nom_s0_t135     T_AB.upper_flow_135         -1  T_AB.lower_flow_135          1
    T_AB.s_nom_s0_t136     T_AB.upper_flow_136         -1  T_AB.lower_flow_136          1
    T_AB.s_nom_s0_t137     T_AB.upper_flow_137         -1  T_AB.lower_flow_137          1
    T_AB.s_nom_s0_t138     T_AB.upper_flow_138         -1  T_AB.lower_flow_138          1
    T_AB.s_nom_s0_t139     T_AB.upper_flow_139         -1  T_AB.lower_flow_139          1
    T_AB.s_nom_s0_t140     T_AB.upper_flow_140         -1  T_AB.lower_flow_140          1
    T_AB.s_nom_s0_t141     T_AB.upper_flow_141         -1  T_AB.lower_flow_141          1
    T_AB.s_nom_s0_t142     T_AB.upper_flow_142         -1  T_AB.lower_flow_142          1
    T_AB.s_nom_s0_t143     T_AB.upper_flow_143         -1  T_AB.lower_flow_143          1
    T_AB.s_nom_s0_t144     T_AB.upper_flow_144         -1  T_AB.lower_flow_144          1
    T_AB.s_nom_s0_t145     T_AB.upper_flow_145         -1  T_AB.lower_flow_145          1
    T_AB.s_nom_s0_t146     T_AB.upper_flow_146         -1  T_AB.lower_flow_146          1
    T_AB.s_nom_s0_t147     T_AB.upper_flow_147         -1  T_AB.lower_flow_147          1
    T_AB.s_nom_s0_t148     T_AB.upper_flow_148         -1  T_AB.lower_flow_148          1
    T_AB.s_nom_s0_t149     T_AB.upper_flow_149         -1  T_AB.lower_flow_149          1
    T_AB.s_nom_s0_t150     T_AB.upper_flow_150         -1  T_AB.lower_flow_150          1
    T_AB.s_nom_s0_t151     T_AB.upper_flow_151         -1  T_AB.lower_flow_151          1
    T_AB.s_nom_s0_t152     T_AB.upper_flow_152         -1  T_AB.lower_flow_152          1
    T_AB.s_nom_s0_t153     T_AB.upper_flow_153         -1  T_AB.lower_flow_153          1
    T_AB.s_nom_s0_t154     T_AB.upper_flow_154         -1  T_AB.lower_flow_154          1
    T_AB.s_nom_s0_t155     T_AB.upper_flow_155         -1  T_AB.lower_flow_155          1
    T_AB.s_nom_s0_t156     T_AB.upper_flow_156         -1  T_AB.lower_flow_156          1
    T_AB.s_nom_s0_t157     T_AB.upper_flow_157         -1  T_AB.lower_flow_157          1
    T_AB.s_nom_s0_t158     T_AB.upper_flow_158         -1  T_AB.lower_flow_158          1
    T_AB.s_nom_s0_t159     T_AB.upper_flow_159         -1  T_AB.lower_flow_159          1
    T_AB.s_nom_s0_t160     T_AB.upper_flow_160         -1  T_AB.lower_flow_160          1
    T_AB.s_nom_s0_t161     T_AB.upper_flow_161         -1  T_AB.lower_flow_161          1
    T_AB.s_nom_s0_t162     T_AB.upper_flow_162         -1  T_AB.lower_flow_162          1
    T_AB.s_nom_s0_t163     T_AB.upper_flow_163         -1  T_AB.lower_flow_163          1
    T_AB.s_nom_s0_t164     T_AB.upper_flow_164         -1  T_AB.lower_flow_164          1
    T_AB.s_nom_s0_t165     T_AB.upper_flow_165         -1  T_AB.lower_flow_165          1
    T_AB.s_nom_s0_t166     T_AB.upper_flow_166         -1  T_AB.lower_flow_166          1
    T_AB.s_nom_s0_t167     T_AB.upper_flow_167         -1  T_AB.lower_flow_167          1
    T_AB.p0_s0_t0          A_HV.p_balance_0            -1  B_LV.p_balance_0             1
    T_AB.p0_s0_t0          T_AB.dc_flow_0               1  T_AB.upper_flow_0            1
    T_AB.p0_s0_t0          T_AB.lower_flow_0            1
    T_AB.p0_s0_t1          A_HV.p_balance_1            -1  B_LV.p_balance_1             1
    T_AB.p0_s0_t1          T_AB.dc_flow_1               1  T_AB.upper_flow_1            1
    T_AB.p0_s0_t1          T_AB.lower_flow_1            1
    T_AB.p0_s0_t2          A_HV.p_balance_2            -1  B_LV.p_balance_2             1
    T_AB.p0_s0_t2          T_AB.dc_flow_2               1  T_AB.upper_flow_2            1
    T_AB.p0_s0_t2          T_AB.lower_flow_2            1
    T_AB.p0_s0_t3          A_HV.p_balance_3            -1  B_LV.p_balance_3             1
    T_AB.p0_s0_t3          T_AB.dc_flow_3               1  T_AB.upper_flow_3            1
    T_AB.p0_s0_t3          T_AB.lower_flow_3            1
    T_AB.p0_s0_t4          A_HV.p_balance_4            -1  B_LV.p_balance_4             1
    T_AB.p0_s0_t4          T_AB.dc_flow_4               1  T_AB.upper_flow_4            1
    T_AB.p0_s0_t4          T_AB.lower_flow_4            1
    T_AB.p0_s0_t5          A_HV.p_balance_5            -1  B_LV.p_balance_5             1
    T_AB.p0_s0_t5          T_AB.dc_flow_5               1  T_AB.upper_flow_5            1
    T_AB.p0_s0_t5          T_AB.lower_flow_5            1
    T_AB.p0_s0_t6          A_HV.p_balance_6            -1  B_LV.p_balance_6             1
    T_AB.p0_s0_t6          T_AB.dc_flow_6               1  T_AB.upper_flow_6            1
    T_AB.p0_s0_t6          T_AB.lower_flow_6            1
    T_AB.p0_s0_t7          A_HV.p_balance_7            -1  B_LV.p_balance_7             1
    T_AB.p0_s0_t7          T_AB.dc_flow_7               1  T_AB.upper_flow_7            1
    T_AB.p0_s0_t7          T_AB.lower_flow_7            1
    T_AB.p0_s0_t8          A_HV.p_balance_8            -1  B_LV.p_balance_8             1
    T_AB.p0_s0_t8          T_AB.dc_flow_8               1  T_AB.upper_flow_8            1
    T_AB.p0_s0_t8          T_AB.lower_flow_8            1
    T_AB.p0_s0_t9          A_HV.p_balance_9            -1  B_LV.p_balance_9             1
    T_AB.p0_s0_t9          T_AB.dc_flow_9               1  T_AB.upper_flow_9            1
    T_AB.p0_s0_t9          T_AB.lower_flow_9            1
    T_AB.p0_s0_t10         A_HV.p_balance_10           -1  B_LV.p_balance_10            1
    T_AB.p0_s0_t10         T_AB.dc_flow_10              1  T_AB.upper_flow_10           1
    T_AB.p0_s0_t10         T_AB.lower_flow_10           1
    T_AB.p0_s0_t11         A_HV.p_balance_11           -1  B_LV.p_balance_11            1
    T_AB.p0_s0_t11         T_AB.dc_flow_11              1  T_AB.upper_flow_11           1
    T_AB.p0_s0_t11         T_AB.lower_flow_11           1
    T_AB.p0_s0_t12         A_HV.p_balance_12           -1  B_LV.p_balance_12            1
    T_AB.p0_s0_t12         T_AB.dc_flow_12              1  T_AB.upper_flow_12           1
    T_AB.p0_s0_t12         T_AB.lower_flow_12           1
    T_AB.p0_s0_t13         A_HV.p_balance_13           -1  B_LV.p_balance_13            1
    T_AB.p0_s0_t13         T_AB.dc_flow_13              1  T_AB.upper_flow_13           1
    T_AB.p0_s0_t13         T_AB.lower_flow_13           1
    T_AB.p0_s0_t14         A_HV.p_balance_14           -1  B_LV.p_balance_14            1
    T_AB.p0_s0_t14         T_AB.dc_flow_14              1  T_AB.upper_flow_14           1
    T_AB.p0_s0_t14         T_AB.lower_flow_14           1
    T_AB.p0_s0_t15         A_HV.p_balance_15           -1  B_LV.p_balance_15            1
    T_AB.p0_s0_t15         T_AB.dc_flow_15              1  T_AB.upper_flow_15           1
    T_AB.p0_s0_t15         T_AB.lower_flow_15           1
    T_AB.p0_s0_t16         A_HV.p_balance_16           -1  B_LV.p_balance_16            1
    T_AB.p0_s0_t16         T_AB.dc_flow_16              1  T_AB.upper_flow_16           1
    T_AB.p0_s0_t16         T_AB.lower_flow_16           1
    T_AB.p0_s0_t17         A_HV.p_balance_17           -1  B_LV.p_balance_17            1
    T_AB.p0_s0_t17         T_AB.dc_flow_17              1  T_AB.upper_flow_17           1
    T_AB.p0_s0_t17         T_AB.lower_flow_17           1
    T_AB.p0_s0_t18         A_HV.p_balance_18           -1  B_LV.p_balance_18            1
    T_AB.p0_s0_t18         T_AB.dc_flow_18              1  T_AB.upper_flow_18           1
    T_AB.p0_s0_t18         T_AB.lower_flow_18           1
    T_AB.p0_s0_t19         A_HV.p_balance_19           -1  B_LV.p_balance_19            1
    T_AB.p0_s0_t19         T_AB.dc_flow_19              1  T_AB.upper_flow_19           1
    T_AB.p0_s0_t19         T_AB.lower_flow_19           1
    T_AB.p0_s0_t20         A_HV.p_balance_20           -1  B_LV.p_balance_20            1
    T_AB.p0_s0_t20         T_AB.dc_flow_20              1  T_AB.upper_flow_20           1
    T_AB.p0_s0_t20         T_AB.lower_flow_20           1
    T_AB.p0_s0_t21         A_HV.p_balance_21           -1  B_LV.p_balance_21            1
    T_AB.p0_s0_t21         T_AB.dc_flow_21              1  T_AB.upper_flow_21           1
    T_AB.p0_s0_t21         T_AB.lower_flow_21           1
    T_AB.p0_s0_t22         A_HV.p_balance_22           -1  B_LV.p_balance_22            1
    T_AB.p0_s0_t22         T_AB.dc_flow_22              1  T_AB.upper_flow_22           1
    T_AB.p0_s0_t22         T_AB.lower_flow_22           1
    T_AB.p0_s0_t23         A_HV.p_balance_23           -1  B_LV.p_balance_23            1
    T_AB.p0_s0_t23         T_AB.dc_flow_23              1  T_AB.upper_flow_23           1
    T_AB.p0_s0_t23         T_AB.lower_flow_23           1
    T_AB.p0_s0_t24         A_HV.p_balance_24           -1  B_LV.p_balance_24            1
    T_AB.p0_s0_t24         T_AB.dc_flow_24              1  T_AB.upper_flow_24           1
    T_AB.p0_s0_t24         T_AB.lower_flow_24           1
    T_AB.p0_s0_t25         A_HV.p_balance_25           -1  B_LV.p_balance_25            1
    T_AB.p0_s0_t25         T_AB.dc_flow_25              1  T_AB.upper_flow_25           1
    T_AB.p0_s0_t25         T_AB.lower_flow_25           1
    T_AB.p0_s0_t26         A_HV.p_balance_26           -1  B_LV.p_balance_26            1
    T_AB.p0_s0_t26         T_AB.dc_flow_26              1  T_AB.upper_flow_26           1
    T_AB.p0_s0_t26         T_AB.lower_flow_26           1
    T_AB.p0_s0_t27         A_HV.p_balance_27           -1  B_LV.p_balance_27            1
    T_AB.p0_s0_t27         T_AB.dc_flow_27              1  T_AB.upper_flow_27           1
    T_AB.p0_s0_t27         T_AB.lower_flow_27           1
    T_AB.p0_s0_t28         A_HV.p_balance_28           -1  B_LV.p_balance_28            1
    T_AB.p0_s0_t28         T_AB.dc_flow_28              1  T_AB.upper_flow_28           1
    T_AB.p0_s0_t28         T_AB.lower_flow_28           1
    T_AB.p0_s0_t29         A_HV.p_balance_29           -1  B_LV.p_balance_29            1
    T_AB.p0_s0_t29         T_AB.dc_flow_29              1  T_AB.upper_flow_29           1
    T_AB.p0_s0_t29         T_AB.lower_flow_29           1
    T_AB.p0_s0_t30         A_HV.p_balance_30           -1  B_LV.p_balance_30            1
    T_AB.p0_s0_t30         T_AB.dc_flow_30              1  T_AB.upper_flow_30           1
    T_AB.p0_s0_t30         T_AB.lower_flow_30           1
    T_AB.p0_s0_t31         A_HV.p_balance_31           -1  B_LV.p_balance_31            1
    T_AB.p0_s0_t31         T_AB.dc_flow_31              1  T_AB.upper_flow_31           1
    T_AB.p0_s0_t31         T_AB.lower_flow_31           1
    T_AB.p0_s0_t32         A_HV.p_balance_32           -1  B_LV.p_balance_32            1
    T_AB.p0_s0_t32         T_AB.dc_flow_32              1  T_AB.upper_flow_32           1
    T_AB.p0_s0_t32         T_AB.lower_flow_32           1
    T_AB.p0_s0_t33         A_HV.p_balance_33           -1  B_LV.p_balance_33            1
    T_AB.p0_s0_t33         T_AB.dc_flow_33              1  T_AB.upper_flow_33           1
    T_AB.p0_s0_t33         T_AB.lower_flow_33           1
    T_AB.p0_s0_t34         A_HV.p_balance_34           -1  B_LV.p_balance_34            1
    T_AB.p0_s0_t34         T_AB.dc_flow_34              1  T_AB.upper_flow_34           1
    T_AB.p0_s0_t34         T_AB.lower_flow_34           1
    T_AB.p0_s0_t35         A_HV.p_balance_35           -1  B_LV.p_balance_35            1
    T_AB.p0_s0_t35         T_AB.dc_flow_35              1  T_AB.upper_flow_35           1
    T_AB.p0_s0_t35         T_AB.lower_flow_35           1
    T_AB.p0_s0_t36         A_HV.p_balance_36           -1  B_LV.p_balance_36            1
    T_AB.p0_s0_t36         T_AB.dc_flow_36              1  T_AB.upper_flow_36           1
    T_AB.p0_s0_t36         T_AB.lower_flow_36           1
    T_AB.p0_s0_t37         A_HV.p_balance_37           -1  B_LV.p_balance_37            1
    T_AB.p0_s0_t37         T_AB.dc_flow_37              1  T_AB.upper_flow_37           1
    T_AB.p0_s0_t37         T_AB.lower_flow_37           1
    T_AB.p0_s0_t38         A_HV.p_balance_38           -1  B_LV.p_balance_38            1
    T_AB.p0_s0_t38         T_AB.dc_flow_38              1  T_AB.upper_flow_38           1
    T_AB.p0_s0_t38         T_AB.lower_flow_38           1
    T_AB.p0_s0_t39         A_HV.p_balance_39           -1  B_LV.p_balance_39            1
    T_AB.p0_s0_t39         T_AB.dc_flow_39              1  T_AB.upper_flow_39           1
    T_AB.p0_s0_t39         T_AB.lower_flow_39           1
    T_AB.p0_s0_t40         A_HV.p_balance_40           -1  B_LV.p_balance_40            1
    T_AB.p0_s0_t40         T_AB.dc_flow_40              1  T_AB.upper_flow_40           1
    T_AB.p0_s0_t40         T_AB.lower_flow_40           1
    T_AB.p0_s0_t41         A_HV.p_balance_41           -1  B_LV.p_balance_41            1
    T_AB.p0_s0_t41         T_AB.dc_flow_41              1  T_AB.upper_flow_41           1
    T_AB.p0_s0_t41         T_AB.lower_flow_41           1
    T_AB.p0_s0_t42         A_HV.p_balance_42           -1  B_LV.p_balance_42            1
    T_AB.p0_s0_t42         T_AB.dc_flow_42              1  T_AB.upper_flow_42           1
    T_AB.p0_s0_t42         T_AB.lower_flow_42           1
    T_AB.p0_s0_t43         A_HV.p_balance_43           -1  B_LV.p_balance_43            1
    T_AB.p0_s0_t43         T_AB.dc_flow_43              1  T_AB.upper_flow_43           1
    T_AB.p0_s0_t43         T_AB.lower_flow_43           1
    T_AB.p0_s0_t44         A_HV.p_balance_44           -1  B_LV.p_balance_44            1
    T_AB.p0_s0_t44         T_AB.dc_flow_44              1  T_AB.upper_flow_44           1
    T_AB.p0_s0_t44         T_AB.lower_flow_44           1
    T_AB.p0_s0_t45         A_HV.p_balance_45           -1  B_LV.p_balance_45            1
    T_AB.p0_s0_t45         T_AB.dc_flow_45              1  T_AB.upper_flow_45           1
    T_AB.p0_s0_t45         T_AB.lower_flow_45           1
    T_AB.p0_s0_t46         A_HV.p_balance_46           -1  B_LV.p_balance_46            1
    T_AB.p0_s0_t46         T_AB.dc_flow_46              1  T_AB.upper_flow_46           1
    T_AB.p0_s0_t46         T_AB.lower_flow_46           1
    T_AB.p0_s0_t47         A_HV.p_balance_47           -1  B_LV.p_balance_47            1
    T_AB.p0_s0_t47         T_AB.dc_flow_47              1  T_AB.upper_flow_47           1
    T_AB.p0_s0_t47         T_AB.lower_flow_47           1
    T_AB.p0_s0_t48         A_HV.p_balance_48           -1  B_LV.p_balance_48            1
    T_AB.p0_s0_t48         T_AB.dc_flow_48              1  T_AB.upper_flow_48           1
    T_AB.p0_s0_t48         T_AB.lower_flow_48           1
    T_AB.p0_s0_t49         A_HV.p_balance_49           -1  B_LV.p_balance_49            1
    T_AB.p0_s0_t49         T_AB.dc_flow_49              1  T_AB.upper_flow_49           1
    T_AB.p0_s0_t49         T_AB.lower_flow_49           1
    T_AB.p0_s0_t50         A_HV.p_balance_50           -1  B_LV.p_balance_50            1
    T_AB.p0_s0_t50         T_AB.dc_flow_50              1  T_AB.upper_flow_50           1
    T_AB.p0_s0_t50         T_AB.lower_flow_50           1
    T_AB.p0_s0_t51         A_HV.p_balance_51           -1  B_LV.p_balance_51            1
    T_AB.p0_s0_t51         T_AB.dc_flow_51              1  T_AB.upper_flow_51           1
    T_AB.p0_s0_t51         T_AB.lower_flow_51           1
    T_AB.p0_s0_t52         A_HV.p_balance_52           -1  B_LV.p_balance_52            1
    T_AB.p0_s0_t52         T_AB.dc_flow_52              1  T_AB.upper_flow_52           1
    T_AB.p0_s0_t52         T_AB.lower_flow_52           1
    T_AB.p0_s0_t53         A_HV.p_balance_53           -1  B_LV.p_balance_53            1
    T_AB.p0_s0_t53         T_AB.dc_flow_53              1  T_AB.upper_flow_53           1
    T_AB.p0_s0_t53         T_AB.lower_flow_53           1
    T_AB.p0_s0_t54         A_HV.p_balance_54           -1  B_LV.p_balance_54            1
    T_AB.p0_s0_t54         T_AB.dc_flow_54              1  T_AB.upper_flow_54           1
    T_AB.p0_s0_t54         T_AB.lower_flow_54           1
    T_AB.p0_s0_t55         A_HV.p_balance_55           -1  B_LV.p_balance_55            1
    T_AB.p0_s0_t55         T_AB.dc_flow_55              1  T_AB.upper_flow_55           1
    T_AB.p0_s0_t55         T_AB.lower_flow_55           1
    T_AB.p0_s0_t56         A_HV.p_balance_56           -1  B_LV.p_balance_56            1
    T_AB.p0_s0_t56         T_AB.dc_flow_56              1  T_AB.upper_flow_56           1
    T_AB.p0_s0_t56         T_AB.lower_flow_56           1
    T_AB.p0_s0_t57         A_HV.p_balance_57           -1  B_LV.p_balance_57            1
    T_AB.p0_s0_t57         T_AB.dc_flow_57              1  T_AB.upper_flow_57           1
    T_AB.p0_s0_t57         T_AB.lower_flow_57           1
    T_AB.p0_s0_t58         A_HV.p_balance_58           -1  B_LV.p_balance_58            1
    T_AB.p0_s0_t58         T_AB.dc_flow_58              1  T_AB.upper_flow_58           1
    T_AB.p0_s0_t58         T_AB.lower_flow_58           1
    T_AB.p0_s0_t59         A_HV.p_balance_59           -1  B_LV.p_balance_59            1
    T_AB.p0_s0_t59         T_AB.dc_flow_59              1  T_AB.upper_flow_59           1
    T_AB.p0_s0_t59         T_AB.lower_flow_59           1
    T_AB.p0_s0_t60         A_HV.p_balance_60           -1  B_LV.p_balance_60            1
    T_AB.p0_s0_t60         T_AB.dc_flow_60              1  T_AB.upper_flow_60           1
    T_AB.p0_s0_t60         T_AB.lower_flow_60           1
    T_AB.p0_s0_t61         A_HV.p_balance_61           -1  B_LV.p_balance_61            1
    T_AB.p0_s0_t61         T_AB.dc_flow_61              1  T_AB.upper_flow_61           1
    T_AB.p0_s0_t61         T_AB.lower_flow_61           1
    T_AB.p0_s0_t62         A_HV.p_balance_62           -1  B_LV.p_balance_62            1
    T_AB.p0_s0_t62         T_AB.dc_flow_62              1  T_AB.upper_flow_62           1
    T_AB.p0_s0_t62         T_AB.lower_flow_62           1
    T_AB.p0_s0_t63         A_HV.p_balance_63           -1  B_LV.p_balance_63            1
    T_AB.p0_s0_t63         T_AB.dc_flow_63              1  T_AB.upper_flow_63           1
    T_AB.p0_s0_t63         T_AB.lower_flow_63           1
    T_AB.p0_s0_t64         A_HV.p_balance_64           -1  B_LV.p_balance_64            1
    T_AB.p0_s0_t64         T_AB.dc_flow_64              1  T_AB.upper_flow_64           1
    T_AB.p0_s0_t64         T_AB.lower_flow_64           1
    T_AB.p0_s0_t65         A_HV.p_balance_65           -1  B_LV.p_balance_65            1
    T_AB.p0_s0_t65         T_AB.dc_flow_65              1  T_AB.upper_flow_65           1
    T_AB.p0_s0_t65         T_AB.lower_flow_65           1
    T_AB.p0_s0_t66         A_HV.p_balance_66           -1  B_LV.p_balance_66            1
    T_AB.p0_s0_t66         T_AB.dc_flow_66              1  T_AB.upper_flow_66           1
    T_AB.p0_s0_t66         T_AB.lower_flow_66           1
    T_AB.p0_s0_t67         A_HV.p_balance_67           -1  B_LV.p_balance_67            1
    T_AB.p0_s0_t67         T_AB.dc_flow_67              1  T_AB.upper_flow_67           1
    T_AB.p0_s0_t67         T_AB.lower_flow_67           1
    T_AB.p0_s0_t68         A_HV.p_balance_68           -1  B_LV.p_balance_68            1
    T_AB.p0_s0_t68         T_AB.dc_flow_68              1  T_AB.upper_flow_68           1
    T_AB.p0_s0_t68         T_AB.lower_flow_68           1
    T_AB.p0_s0_t69         A_HV.p_balance_69           -1  B_LV.p_balance_69            1
    T_AB.p0_s0_t69         T_AB.dc_flow_69              1  T_AB.upper_flow_69           1
    T_AB.p0_s0_t69         T_AB.lower_flow_69           1
    T_AB.p0_s0_t70         A_HV.p_balance_70           -1  B_LV.p_balance_70            1
    T_AB.p0_s0_t70         T_AB.dc_flow_70              1  T_AB.upper_flow_70           1
    T_AB.p0_s0_t70         T_AB.lower_flow_70           1
    T_AB.p0_s0_t71         A_HV.p_balance_71           -1  B_LV.p_balance_71            1
    T_AB.p0_s0_t71         T_AB.dc_flow_71              1  T_AB.upper_flow_71           1
    T_AB.p0_s0_t71         T_AB.lower_flow_71           1
    T_AB.p0_s0_t72         A_HV.p_balance_72           -1  B_LV.p_balance_72            1
    T_AB.p0_s0_t72         T_AB.dc_flow_72              1  T_AB.upper_flow_72           1
    T_AB.p0_s0_t72         T_AB.lower_flow_72           1
    T_AB.p0_s0_t73         A_HV.p_balance_73           -1  B_LV.p_balance_73            1
    T_AB.p0_s0_t73         T_AB.dc_flow_73              1  T_AB.upper_flow_73           1
    T_AB.p0_s0_t73         T_AB.lower_flow_73           1
    T_AB.p0_s0_t74         A_HV.p_balance_74           -1  B_LV.p_balance_74            1
    T_AB.p0_s0_t74         T_AB.dc_flow_74              1  T_AB.upper_flow_74           1
    T_AB.p0_s0_t74         T_AB.lower_flow_74           1
    T_AB.p0_s0_t75         A_HV.p_balance_75           -1  B_LV.p_balance_75            1
    T_AB.p0_s0_t75         T_AB.dc_flow_75              1  T_AB.upper_flow_75           1
    T_AB.p0_s0_t75         T_AB.lower_flow_75           1
    T_AB.p0_s0_t76         A_HV.p_balance_76           -1  B_LV.p_balance_76            1
    T_AB.p0_s0_t76         T_AB.dc_flow_76              1  T_AB.upper_flow_76           1
    T_AB.p0_s0_t76         T_AB.lower_flow_76           1
    T_AB.p0_s0_t77         A_HV.p_balance_77           -1  B_LV.p_balance_77            1
    T_AB.p0_s0_t77         T_AB.dc_flow_77              1  T_AB.upper_flow_77           1
    T_AB.p0_s0_t77         T_AB.lower_flow_77           1
    T_AB.p0_s0_t78         A_HV.p_balance_78           -1  B_LV.p_balance_78            1
    T_AB.p0_s0_t78         T_AB.dc_flow_78              1  T_AB.upper_flow_78           1
    T_AB.p0_s0_t78         T_AB.lower_flow_78           1
    T_AB.p0_s0_t79         A_HV.p_balance_79           -1  B_LV.p_balance_79            1
    T_AB.p0_s0_t79         T_AB.dc_flow_79              1  T_AB.upper_flow_79           1
    T_AB.p0_s0_t79         T_AB.lower_flow_79           1
    T_AB.p0_s0_t80         A_HV.p_balance_80           -1  B_LV.p_balance_80            1
    T_AB.p0_s0_t80         T_AB.dc_flow_80              1  T_AB.upper_flow_80           1
    T_AB.p0_s0_t80         T_AB.lower_flow_80           1
    T_AB.p0_s0_t81         A_HV.p_balance_81           -1  B_LV.p_balance_81            1
    T_AB.p0_s0_t81         T_AB.dc_flow_81              1  T_AB.upper_flow_81           1
    T_AB.p0_s0_t81         T_AB.lower_flow_81           1
    T_AB.p0_s0_t82         A_HV.p_balance_82           -1  B_LV.p_balance_82            1
    T_AB.p0_s0_t82         T_AB.dc_flow_82              1  T_AB.upper_flow_82           1
    T_AB.p0_s0_t82         T_AB.lower_flow_82           1
    T_AB.p0_s0_t83         A_HV.p_balance_83           -1  B_LV.p_balance_83            1
    T_AB.p0_s0_t83         T_AB.dc_flow_83              1  T_AB.upper_flow_83           1
    T_AB.p0_s0_t83         T_AB.lower_flow_83           1
    T_AB.p0_s0_t84         A_HV.p_balance_84           -1  B_LV.p_balance_84            1
    T_AB.p0_s0_t84         T_AB.dc_flow_84              1  T_AB.upper_flow_84           1
    T_AB.p0_s0_t84         T_AB.lower_flow_84           1
    T_AB.p0_s0_t85         A_HV.p_balance_85           -1  B_LV.p_balance_85            1
    T_AB.p0_s0_t85         T_AB.dc_flow_85              1  T_AB.upper_flow_85           1
    T_AB.p0_s0_t85         T_AB.lower_flow_85           1
    T_AB.p0_s0_t86         A_HV.p_balance_86           -1  B_LV.p_balance_86            1
    T_AB.p0_s0_t86         T_AB.dc_flow_86              1  T_AB.upper_flow_86           1
    T_AB.p0_s0_t86         T_AB.lower_flow_86           1
    T_AB.p0_s0_t87         A_HV.p_balance_87           -1  B_LV.p_balance_87            1
    T_AB.p0_s0_t87         T_AB.dc_flow_87              1  T_AB.upper_flow_87           1
    T_AB.p0_s0_t87         T_AB.lower_flow_87           1
    T_AB.p0_s0_t88         A_HV.p_balance_88           -1  B_LV.p_balance_88            1
    T_AB.p0_s0_t88         T_AB.dc_flow_88              1  T_AB.upper_flow_88           1
    T_AB.p0_s0_t88         T_AB.lower_flow_88           1
    T_AB.p0_s0_t89         A_HV.p_balance_89           -1  B_LV.p_balance_89            1
    T_AB.p0_s0_t89         T_AB.dc_flow_89              1  T_AB.upper_flow_89           1
    T_AB.p0_s0_t89         T_AB.lower_flow_89           1
    T_AB.p0_s0_t90         A_HV.p_balance_90           -1  B_LV.p_balance_90            1
    T_AB.p0_s0_t90         T_AB.dc_flow_90              1  T_AB.upper_flow_90           1
    T_AB.p0_s0_t90         T_AB.lower_flow_90           1
    T_AB.p0_s0_t91         A_HV.p_balance_91           -1  B_LV.p_balance_91            1
    T_AB.p0_s0_t91         T_AB.dc_flow_91              1  T_AB.upper_flow_91           1
    T_AB.p0_s0_t91         T_AB.lower_flow_91           1
    T_AB.p0_s0_t92         A_HV.p_balance_92           -1  B_LV.p_balance_92            1
    T_AB.p0_s0_t92         T_AB.dc_flow_92              1  T_AB.upper_flow_92           1
    T_AB.p0_s0_t92         T_AB.lower_flow_92           1
    T_AB.p0_s0_t93         A_HV.p_balance_93           -1  B_LV.p_balance_93            1
    T_AB.p0_s0_t93         T_AB.dc_flow_93              1  T_AB.upper_flow_93           1
    T_AB.p0_s0_t93         T_AB.lower_flow_93           1
    T_AB.p0_s0_t94         A_HV.p_balance_94           -1  B_LV.p_balance_94            1
    T_AB.p0_s0_t94         T_AB.dc_flow_94              1  T_AB.upper_flow_94           1
    T_AB.p0_s0_t94         T_AB.lower_flow_94           1
    T_AB.p0_s0_t95         A_HV.p_balance_95           -1  B_LV.p_balance_95            1
    T_AB.p0_s0_t95         T_AB.dc_flow_95              1  T_AB.upper_flow_95           1
    T_AB.p0_s0_t95         T_AB.lower_flow_95           1
    T_AB.p0_s0_t96         A_HV.p_balance_96           -1  B_LV.p_balance_96            1
    T_AB.p0_s0_t96         T_AB.dc_flow_96              1  T_AB.upper_flow_96           1
    T_AB.p0_s0_t96         T_AB.lower_flow_96           1
    T_AB.p0_s0_t97         A_HV.p_balance_97           -1  B_LV.p_balance_97            1
    T_AB.p0_s0_t97         T_AB.dc_flow_97              1  T_AB.upper_flow_97           1
    T_AB.p0_s0_t97         T_AB.lower_flow_97           1
    T_AB.p0_s0_t98         A_HV.p_balance_98           -1  B_LV.p_balance_98            1
    T_AB.p0_s0_t98         T_AB.dc_flow_98              1  T_AB.upper_flow_98           1
    T_AB.p0_s0_t98         T_AB.lower_flow_98           1
    T_AB.p0_s0_t99         A_HV.p_balance_99           -1  B_LV.p_balance_99            1
    T_AB.p0_s0_t99         T_AB.dc_flow_99              1  T_AB.upper_flow_99           1
    T_AB.p0_s0_t99         T_AB.lower_flow_99           1
    T_AB.p0_s0_t100        A_HV.p_balance_100          -1  B_LV.p_balance_100           1
    T_AB.p0_s0_t100        T_AB.dc_flow_100             1  T_AB.upper_flow_100          1
    T_AB.p0_s0_t100        T_AB.lower_flow_100          1
    T_AB.p0_s0_t101        A_HV.p_balance_101          -1  B_LV.p_balance_101           1
    T_AB.p0_s0_t101        T_AB.dc_flow_101             1  T_AB.upper_flow_101          1
    T_AB.p0_s0_t101        T_AB.lower_flow_101          1
    T_AB.p0_s0_t102        A_HV.p_balance_102          -1  B_LV.p_balance_102           1
    T_AB.p0_s0_t102        T_AB.dc_flow_102             1  T_AB.upper_flow_102          1
    T_AB.p0_s0_t102        T_AB.lower_flow_102          1
    T_AB.p0_s0_t103        A_HV.p_balance_103          -1  B_LV.p_balance_103           1
    T_AB.p0_s0_t103        T_AB.dc_flow_103             1  T_AB.upper_flow_103          1
    T_AB.p0_s0_t103        T_AB.lower_flow_103          1
    T_AB.p0_s0_t104        A_HV.p_balance_104          -1  B_LV.p_balance_104           1
    T_AB.p0_s0_t104        T_AB.dc_flow_104             1  T_AB.upper_flow_104          1
    T_AB.p0_s0_t104        T_AB.lower_flow_104          1
    T_AB.p0_s0_t105        A_HV.p_balance_105          -1  B_LV.p_balance_105           1
    T_AB.p0_s0_t105        T_AB.dc_flow_105             1  T_AB.upper_flow_105          1
    T_AB.p0_s0_t105        T_AB.lower_flow_105          1
    T_AB.p0_s0_t106        A_HV.p_balance_106          -1  B_LV.p_balance_106           1
    T_AB.p0_s0_t106        T_AB.dc_flow_106             1  T_AB.upper_flow_106          1
    T_AB.p0_s0_t106        T_AB.lower_flow_106          1
    T_AB.p0_s0_t107        A_HV.p_balance_107          -1  B_LV.p_balance_107           1
    T_AB.p0_s0_t107        T_AB.dc_flow_107             1  T_AB.upper_flow_107          1
    T_AB.p0_s0_t107        T_AB.lower_flow_107          1
    T_AB.p0_s0_t108        A_HV.p_balance_108          -1  B_LV.p_balance_108           1
    T_AB.p0_s0_t108        T_AB.dc_flow_108             1  T_AB.upper_flow_108          1
    T_AB.p0_s0_t108        T_AB.lower_flow_108          1
    T_AB.p0_s0_t109        A_HV.p_balance_109          -1  B_LV.p_balance_109           1
    T_AB.p0_s0_t109        T_AB.dc_flow_109             1  T_AB.upper_flow_109          1
    T_AB.p0_s0_t109        T_AB.lower_flow_109          1
    T_AB.p0_s0_t110        A_HV.p_balance_110          -1  B_LV.p_balance_110           1
    T_AB.p0_s0_t110        T_AB.dc_flow_110             1  T_AB.upper_flow_110          1
    T_AB.p0_s0_t110        T_AB.lower_flow_110          1
    T_AB.p0_s0_t111        A_HV.p_balance_111          -1  B_LV.p_balance_111           1
    T_AB.p0_s0_t111        T_AB.dc_flow_111             1  T_AB.upper_flow_111          1
    T_AB.p0_s0_t111        T_AB.lower_flow_111          1
    T_AB.p0_s0_t112        A_HV.p_balance_112          -1  B_LV.p_balance_112           1
    T_AB.p0_s0_t112        T_AB.dc_flow_112             1  T_AB.upper_flow_112          1
    T_AB.p0_s0_t112        T_AB.lower_flow_112          1
    T_AB.p0_s0_t113        A_HV.p_balance_113          -1  B_LV.p_balance_113           1
    T_AB.p0_s0_t113        T_AB.dc_flow_113             1  T_AB.upper_flow_113          1
    T_AB.p0_s0_t113        T_AB.lower_flow_113          1
    T_AB.p0_s0_t114        A_HV.p_balance_114          -1  B_LV.p_balance_114           1
    T_AB.p0_s0_t114        T_AB.dc_flow_114             1  T_AB.upper_flow_114          1
    T_AB.p0_s0_t114        T_AB.lower_flow_114          1
    T_AB.p0_s0_t115        A_HV.p_balance_115          -1  B_LV.p_balance_115           1
    T_AB.p0_s0_t115        T_AB.dc_flow_115             1  T_AB.upper_flow_115          1
    T_AB.p0_s0_t115        T_AB.lower_flow_115          1
    T_AB.p0_s0_t116        A_HV.p_balance_116          -1  B_LV.p_balance_116           1
    T_AB.p0_s0_t116        T_AB.dc_flow_116             1  T_AB.upper_flow_116          1
    T_AB.p0_s0_t116        T_AB.lower_flow_116          1
    T_AB.p0_s0_t117        A_HV.p_balance_117          -1  B_LV.p_balance_117           1
    T_AB.p0_s0_t117        T_AB.dc_flow_117             1  T_AB.upper_flow_117          1
    T_AB.p0_s0_t117        T_AB.lower_flow_117          1
    T_AB.p0_s0_t118        A_HV.p_balance_118          -1  B_LV.p_balance_118           1
    T_AB.p0_s0_t118        T_AB.dc_flow_118             1  T_AB.upper_flow_118          1
    T_AB.p0_s0_t118        T_AB.lower_flow_118          1
    T_AB.p0_s0_t119        A_HV.p_balance_119          -1  B_LV.p_balance_119           1
    T_AB.p0_s0_t119        T_AB.dc_flow_119             1  T_AB.upper_flow_119          1
    T_AB.p0_s0_t119        T_AB.lower_flow_119          1
    T_AB.p0_s0_t120        A_HV.p_balance_120          -1  B_LV.p_balance_120           1
    T_AB.p0_s0_t120        T_AB.dc_flow_120             1  T_AB.upper_flow_120          1
    T_AB.p0_s0_t120        T_AB.lower_flow_120          1
    T_AB.p0_s0_t121        A_HV.p_balance_121          -1  B_LV.p_balance_121           1
    T_AB.p0_s0_t121        T_AB.dc_flow_121             1  T_AB.upper_flow_121          1
    T_AB.p0_s0_t121        T_AB.lower_flow_121          1
    T_AB.p0_s0_t122        A_HV.p_balance_122          -1  B_LV.p_balance_122           1
    T_AB.p0_s0_t122        T_AB.dc_flow_122             1  T_AB.upper_flow_122          1
    T_AB.p0_s0_t122        T_AB.lower_flow_122          1
    T_AB.p0_s0_t123        A_HV.p_balance_123          -1  B_LV.p_balance_123           1
    T_AB.p0_s0_t123        T_AB.dc_flow_123             1  T_AB.upper_flow_123          1
    T_AB.p0_s0_t123        T_AB.lower_flow_123          1
    T_AB.p0_s0_t124        A_HV.p_balance_124          -1  B_LV.p_balance_124           1
    T_AB.p0_s0_t124        T_AB.dc_flow_124             1  T_AB.upper_flow_124          1
    T_AB.p0_s0_t124        T_AB.lower_flow_124          1
    T_AB.p0_s0_t125        A_HV.p_balance_125          -1  B_LV.p_balance_125           1
    T_AB.p0_s0_t125        T_AB.dc_flow_125             1  T_AB.upper_flow_125          1
    T_AB.p0_s0_t125        T_AB.lower_flow_125          1
    T_AB.p0_s0_t126        A_HV.p_balance_126          -1  B_LV.p_balance_126           1
    T_AB.p0_s0_t126        T_AB.dc_flow_126             1  T_AB.upper_flow_126          1
    T_AB.p0_s0_t126        T_AB.lower_flow_126          1
    T_AB.p0_s0_t127        A_HV.p_balance_127          -1  B_LV.p_balance_127           1
    T_AB.p0_s0_t127        T_AB.dc_flow_127             1  T_AB.upper_flow_127          1
    T_AB.p0_s0_t127        T_AB.lower_flow_127          1
    T_AB.p0_s0_t128        A_HV.p_balance_128          -1  B_LV.p_balance_128           1
    T_AB.p0_s0_t128        T_AB.dc_flow_128             1  T_AB.upper_flow_128          1
    T_AB.p0_s0_t128        T_AB.lower_flow_128          1
    T_AB.p0_s0_t129        A_HV.p_balance_129          -1  B_LV.p_balance_129           1
    T_AB.p0_s0_t129        T_AB.dc_flow_129             1  T_AB.upper_flow_129          1
    T_AB.p0_s0_t129        T_AB.lower_flow_129          1
    T_AB.p0_s0_t130        A_HV.p_balance_130          -1  B_LV.p_balance_130           1
    T_AB.p0_s0_t130        T_AB.dc_flow_130             1  T_AB.upper_flow_130          1
    T_AB.p0_s0_t130        T_AB.lower_flow_130          1
    T_AB.p0_s0_t131        A_HV.p_balance_131          -1  B_LV.p_balance_131           1
    T_AB.p0_s0_t131        T_AB.dc_flow_131             1  T_AB.upper_flow_131          1
    T_AB.p0_s0_t131        T_AB.lower_flow_131          1
    T_AB.p0_s0_t132        A_HV.p_balance_132          -1  B_LV.p_balance_132           1
    T_AB.p0_s0_t132        T_AB.dc_flow_132             1  T_AB.upper_flow_132          1
    T_AB.p0_s0_t132        T_AB.lower_flow_132          1
    T_AB.p0_s0_t133        A_HV.p_balance_133          -1  B_LV.p_balance_133           1
    T_AB.p0_s0_t133        T_AB.dc_flow_133             1  T_AB.upper_flow_133          1
    T_AB.p0_s0_t133        T_AB.lower_flow_133          1
    T_AB.p0_s0_t134        A_HV.p_balance_134          -1  B_LV.p_balance_134           1
    T_AB.p0_s0_t134        T_AB.dc_flow_134             1  T_AB.upper_flow_134          1
    T_AB.p0_s0_t134        T_AB.lower_flow_134          1
    T_AB.p0_s0_t135        A_HV.p_balance_135          -1  B_LV.p_balance_135           1
    T_AB.p0_s0_t135        T_AB.dc_flow_135             1  T_AB.upper_flow_135          1
    T_AB.p0_s0_t135        T_AB.lower_flow_135          1
    T_AB.p0_s0_t136        A_HV.p_balance_136          -1  B_LV.p_balance_136           1
    T_AB.p0_s0_t136        T_AB.dc_flow_136             1  T_AB.upper_flow_136          1
    T_AB.p0_s0_t136        T_AB.lower_flow_136          1
    T_AB.p0_s0_t137        A_HV.p_balance_137          -1  B_LV.p_balance_137           1
    T_AB.p0_s0_t137        T_AB.dc_flow_137             1  T_AB.upper_flow_137          1
    T_AB.p0_s0_t137        T_AB.lower_flow_137          1
    T_AB.p0_s0_t138        A_HV.p_balance_138          -1  B_LV.p_balance_138           1
    T_AB.p0_s0_t138        T_AB.dc_flow_138             1  T_AB.upper_flow_138          1
    T_AB.p0_s0_t138        T_AB.lower_flow_138          1
    T_AB.p0_s0_t139        A_HV.p_balance_139          -1  B_LV.p_balance_139           1
    T_AB.p0_s0_t139        T_AB.dc_flow_139             1  T_AB.upper_flow_139          1
    T_AB.p0_s0_t139        T_AB.lower_flow_139          1
    T_AB.p0_s0_t140        A_HV.p_balance_140          -1  B_LV.p_balance_140           1
    T_AB.p0_s0_t140        T_AB.dc_flow_140             1  T_AB.upper_flow_140          1
    T_AB.p0_s0_t140        T_AB.lower_flow_140          1
    T_AB.p0_s0_t141        A_HV.p_balance_141          -1  B_LV.p_balance_141           1
    T_AB.p0_s0_t141        T_AB.dc_flow_141             1  T_AB.upper_flow_141          1
    T_AB.p0_s0_t141        T_AB.lower_flow_141          1
    T_AB.p0_s0_t142        A_HV.p_balance_142          -1  B_LV.p_balance_142           1
    T_AB.p0_s0_t142        T_AB.dc_flow_142             1  T_AB.upper_flow_142          1
    T_AB.p0_s0_t142        T_AB.lower_flow_142          1
    T_AB.p0_s0_t143        A_HV.p_balance_143          -1  B_LV.p_balance_143           1
    T_AB.p0_s0_t143        T_AB.dc_flow_143             1  T_AB.upper_flow_143          1
    T_AB.p0_s0_t143        T_AB.lower_flow_143          1
    T_AB.p0_s0_t144        A_HV.p_balance_144          -1  B_LV.p_balance_144           1
    T_AB.p0_s0_t144        T_AB.dc_flow_144             1  T_AB.upper_flow_144          1
    T_AB.p0_s0_t144        T_AB.lower_flow_144          1
    T_AB.p0_s0_t145        A_HV.p_balance_145          -1  B_LV.p_balance_145           1
    T_AB.p0_s0_t145        T_AB.dc_flow_145             1  T_AB.upper_flow_145          1
    T_AB.p0_s0_t145        T_AB.lower_flow_145          1
    T_AB.p0_s0_t146        A_HV.p_balance_146          -1  B_LV.p_balance_146           1
    T_AB.p0_s0_t146        T_AB.dc_flow_146             1  T_AB.upper_flow_146          1
    T_AB.p0_s0_t146        T_AB.lower_flow_146          1
    T_AB.p0_s0_t147        A_HV.p_balance_147          -1  B_LV.p_balance_147           1
    T_AB.p0_s0_t147        T_AB.dc_flow_147             1  T_AB.upper_flow_147          1
    T_AB.p0_s0_t147        T_AB.lower_flow_147          1
    T_AB.p0_s0_t148        A_HV.p_balance_148          -1  B_LV.p_balance_148           1
    T_AB.p0_s0_t148        T_AB.dc_flow_148             1  T_AB.upper_flow_148          1
    T_AB.p0_s0_t148        T_AB.lower_flow_148          1
    T_AB.p0_s0_t149        A_HV.p_balance_149          -1  B_LV.p_balance_149           1
    T_AB.p0_s0_t149        T_AB.dc_flow_149             1  T_AB.upper_flow_149          1
    T_AB.p0_s0_t149        T_AB.lower_flow_149          1
    T_AB.p0_s0_t150        A_HV.p_balance_150          -1  B_LV.p_balance_150           1
    T_AB.p0_s0_t150        T_AB.dc_flow_150             1  T_AB.upper_flow_150          1
    T_AB.p0_s0_t150        T_AB.lower_flow_150          1
    T_AB.p0_s0_t151        A_HV.p_balance_151          -1  B_LV.p_balance_151           1
    T_AB.p0_s0_t151        T_AB.dc_flow_151             1  T_AB.upper_flow_151          1
    T_AB.p0_s0_t151        T_AB.lower_flow_151          1
    T_AB.p0_s0_t152        A_HV.p_balance_152          -1  B_LV.p_balance_152           1
    T_AB.p0_s0_t152        T_AB.dc_flow_152             1  T_AB.upper_flow_152          1
    T_AB.p0_s0_t152        T_AB.lower_flow_152          1
    T_AB.p0_s0_t153        A_HV.p_balance_153          -1  B_LV.p_balance_153           1
    T_AB.p0_s0_t153        T_AB.dc_flow_153             1  T_AB.upper_flow_153          1
    T_AB.p0_s0_t153        T_AB.lower_flow_153          1
    T_AB.p0_s0_t154        A_HV.p_balance_154          -1  B_LV.p_balance_154           1
    T_AB.p0_s0_t154        T_AB.dc_flow_154             1  T_AB.upper_flow_154          1
    T_AB.p0_s0_t154        T_AB.lower_flow_154          1
    T_AB.p0_s0_t155        A_HV.p_balance_155          -1  B_LV.p_balance_155           1
    T_AB.p0_s0_t155        T_AB.dc_flow_155             1  T_AB.upper_flow_155          1
    T_AB.p0_s0_t155        T_AB.lower_flow_155          1
    T_AB.p0_s0_t156        A_HV.p_balance_156          -1  B_LV.p_balance_156           1
    T_AB.p0_s0_t156        T_AB.dc_flow_156             1  T_AB.upper_flow_156          1
    T_AB.p0_s0_t156        T_AB.lower_flow_156          1
    T_AB.p0_s0_t157        A_HV.p_balance_157          -1  B_LV.p_balance_157           1
    T_AB.p0_s0_t157        T_AB.dc_flow_157             1  T_AB.upper_flow_157          1
    T_AB.p0_s0_t157        T_AB.lower_flow_157          1
    T_AB.p0_s0_t158        A_HV.p_balance_158          -1  B_LV.p_balance_158           1
    T_AB.p0_s0_t158        T_AB.dc_flow_158             1  T_AB.upper_flow_158          1
    T_AB.p0_s0_t158        T_AB.lower_flow_158          1
    T_AB.p0_s0_t159        A_HV.p_balance_159          -1  B_LV.p_balance_159           1
    T_AB.p0_s0_t159        T_AB.dc_flow_159             1  T_AB.upper_flow_159          1
    T_AB.p0_s0_t159        T_AB.lower_flow_159          1
    T_AB.p0_s0_t160        A_HV.p_balance_160          -1  B_LV.p_balance_160           1
    T_AB.p0_s0_t160        T_AB.dc_flow_160             1  T_AB.upper_flow_160          1
    T_AB.p0_s0_t160        T_AB.lower_flow_160          1
    T_AB.p0_s0_t161        A_HV.p_balance_161          -1  B_LV.p_balance_161           1
    T_AB.p0_s0_t161        T_AB.dc_flow_161             1  T_AB.upper_flow_161          1
    T_AB.p0_s0_t161        T_AB.lower_flow_161          1
    T_AB.p0_s0_t162        A_HV.p_balance_162          -1  B_LV.p_balance_162           1
    T_AB.p0_s0_t162        T_AB.dc_flow_162             1  T_AB.upper_flow_162          1
    T_AB.p0_s0_t162        T_AB.lower_flow_162          1
    T_AB.p0_s0_t163        A_HV.p_balance_163          -1  B_LV.p_balance_163           1
    T_AB.p0_s0_t163        T_AB.dc_flow_163             1  T_AB.upper_flow_163          1
    T_AB.p0_s0_t163        T_AB.lower_flow_163          1
    T_AB.p0_s0_t164        A_HV.p_balance_164          -1  B_LV.p_balance_164           1
    T_AB.p0_s0_t164        T_AB.dc_flow_164             1  T_AB.upper_flow_164          1
    T_AB.p0_s0_t164        T_AB.lower_flow_164          1
    T_AB.p0_s0_t165        A_HV.p_balance_165          -1  B_LV.p_balance_165           1
    T_AB.p0_s0_t165        T_AB.dc_flow_165             1  T_AB.upper_flow_165          1
    T_AB.p0_s0_t165        T_AB.lower_flow_165          1
    T_AB.p0_s0_t166        A_HV.p_balance_166          -1  B_LV.p_balance_166           1
    T_AB.p0_s0_t166        T_AB.dc_flow_166             1  T_AB.upper_flow_166          1
    T_AB.p0_s0_t166        T_AB.lower_flow_166          1
    T_AB.p0_s0_t167        A_HV.p_balance_167          -1  B_LV.p_balance_167           1
    T_AB.p0_s0_t167        T_AB.dc_flow_167             1  T_AB.upper_flow_167          1
    T_AB.p0_s0_t167        T_AB.lower_flow_167          1
    BC.s_nom_s0_t0         BC.upper_flow_0             -1  BC.lower_flow_0              1
    BC.s_nom_s0_t1         BC.upper_flow_1             -1  BC.lower_flow_1              1
    BC.s_nom_s0_t2         BC.upper_flow_2             -1  BC.lower_flow_2              1
    BC.s_nom_s0_t3         BC.upper_flow_3             -1  BC.lower_flow_3              1
    BC.s_nom_s0_t4         BC.upper_flow_4             -1  BC.lower_flow_4              1
    BC.s_nom_s0_t5         BC.upper_flow_5             -1  BC.lower_flow_5              1
    BC.s_nom_s0_t6         BC.upper_flow_6             -1  BC.lower_flow_6              1
    BC.s_nom_s0_t7         BC.upper_flow_7             -1  BC.lower_flow_7              1
    BC.s_nom_s0_t8         BC.upper_flow_8             -1  BC.lower_flow_8              1
    BC.s_nom_s0_t9         BC.upper_flow_9             -1  BC.lower_flow_9              1
    BC.s_nom_s0_t10        BC.upper_flow_10            -1  BC.lower_flow_10             1
    BC.s_nom_s0_t11        BC.upper_flow_11            -1  BC.lower_flow_11             1
    BC.s_nom_s0_t12        BC.upper_flow_12            -1  BC.lower_flow_12             1
    BC.s_nom_s0_t13        BC.upper_flow_13            -1  BC.lower_flow_13             1
    BC.s_nom_s0_t14        BC.upper_flow_14            -1  BC.lower_flow_14             1
    BC.s_nom_s0_t15        BC.upper_flow_15            -1  BC.lower_flow_15             1
    BC.s_nom_s0_t16        BC.upper_flow_16            -1  BC.lower_flow_16             1
    BC.s_nom_s0_t17        BC.upper_flow_17            -1  BC.lower_flow_17             1
    BC.s_nom_s0_t18        BC.upper_flow_18            -1  BC.lower_flow_18             1
    BC.s_nom_s0_t19        BC.upper_flow_19            -1  BC.lower_flow_19             1
    BC.s_nom_s0_t20        BC.upper_flow_20            -1  BC.lower_flow_20             1
    BC.s_nom_s0_t21        BC.upper_flow_21            -1  BC.lower_flow_21             1
    BC.s_nom_s0_t22        BC.upper_flow_22            -1  BC.lower_flow_22             1
    BC.s_nom_s0_t23        BC.upper_flow_23            -1  BC.lower_flow_23             1
    BC.s_nom_s0_t24        BC.upper_flow_24            -1  BC.lower_flow_24             1
    BC.s_nom_s0_t25        BC.upper_flow_25            -1  BC.lower_flow_25             1
    BC.s_nom_s0_t26        BC.upper_flow_26            -1  BC.lower_flow_26             1
    BC.s_nom_s0_t27        BC.upper_flow_27            -1  BC.lower_flow_27             1
    BC.s_nom_s0_t28        BC.upper_flow_28            -1  BC.lower_flow_28             1
    BC.s_nom_s0_t29        BC.upper_flow_29            -1  BC.lower_flow_29             1
    BC.s_nom_s0_t30        BC.upper_flow_30            -1  BC.lower_flow_30             1
    BC.s_nom_s0_t31        BC.upper_flow_31            -1  BC.lower_flow_31             1
    BC.s_nom_s0_t32        BC.upper_flow_32            -1  BC.lower_flow_32             1
    BC.s_nom_s0_t33        BC.upper_flow_33            -1  BC.lower_flow_33             1
    BC.s_nom_s0_t34        BC.upper_flow_34            -1  BC.lower_flow_34             1
    BC.s_nom_s0_t35        BC.upper_flow_35            -1  BC.lower_flow_35             1
    BC.s_nom_s0_t36        BC.upper_flow_36            -1  BC.lower_flow_36             1
    BC.s_nom_s0_t37        BC.upper_flow_37            -1  BC.lower_flow_37             1
    BC.s_nom_s0_t38        BC.upper_flow_38            -1  BC.lower_flow_38             1
    BC.s_nom_s0_t39        BC.upper_flow_39            -1  BC.lower_flow_39             1
    BC.s_nom_s0_t40        BC.upper_flow_40            -1  BC.lower_flow_40             1
    BC.s_nom_s0_t41        BC.upper_flow_41            -1  BC.lower_flow_41             1
    BC.s_nom_s0_t42        BC.upper_flow_42            -1  BC.lower_flow_42             1
    BC.s_nom_s0_t43        BC.upper_flow_43            -1  BC.lower_flow_43             1
    BC.s_nom_s0_t44        BC.upper_flow_44            -1  BC.lower_flow_44             1
    BC.s_nom_s0_t45        BC.upper_flow_45            -1  BC.lower_flow_45             1
    BC.s_nom_s0_t46        BC.upper_flow_46            -1  BC.lower_flow_46             1
    BC.s_nom_s0_t47        BC.upper_flow_47            -1  BC.lower_flow_47             1
    BC.s_nom_s0_t48        BC.upper_flow_48            -1  BC.lower_flow_48             1
    BC.s_nom_s0_t49        BC.upper_flow_49            -1  BC.lower_flow_49             1
    BC.s_nom_s0_t50        BC.upper_flow_50            -1  BC.lower_flow_50             1
    BC.s_nom_s0_t51        BC.upper_flow_51            -1  BC.lower_flow_51             1
    BC.s_nom_s0_t52        BC.upper_flow_52            -1  BC.lower_flow_52             1
    BC.s_nom_s0_t53        BC.upper_flow_53            -1  BC.lower_flow_53             1
    BC.s_nom_s0_t54        BC.upper_flow_54            -1  BC.lower_flow_54             1
    BC.s_nom_s0_t55        BC.upper_flow_55            -1  BC.lower_flow_55             1
    BC.s_nom_s0_t56        BC.upper_flow_56            -1  BC.lower_flow_56             1
    BC.s_nom_s0_t57        BC.upper_flow_57            -1  BC.lower_flow_57             1
    BC.s_nom_s0_t58        BC.upper_flow_58            -1  BC.lower_flow_58             1
    BC.s_nom_s0_t59        BC.upper_flow_59            -1  BC.lower_flow_59             1
    BC.s_nom_s0_t60        BC.upper_flow_60            -1  BC.lower_flow_60             1
    BC.s_nom_s0_t61        BC.upper_flow_61            -1  BC.lower_flow_61             1
    BC.s_nom_s0_t62        BC.upper_flow_62            -1  BC.lower_flow_62             1
    BC.s_nom_s0_t63        BC.upper_flow_63            -1  BC.lower_flow_63             1
    BC.s_nom_s0_t64        BC.upper_flow_64            -1  BC.lower_flow_64             1
    BC.s_nom_s0_t65        BC.upper_flow_65            -1  BC.lower_flow_65             1
    BC.s_nom_s0_t66        BC.upper_flow_66            -1  BC.lower_flow_66             1
    BC.s_nom_s0_t67        BC.upper_flow_67            -1  BC.lower_flow_67             1
    BC.s_nom_s0_t68        BC.upper_flow_68            -1  BC.lower_flow_68             1
    BC.s_nom_s0_t69        BC.upper_flow_69            -1  BC.lower_flow_69             1
    BC.s_nom_s0_t70        BC.upper_flow_70            -1  BC.lower_flow_70             1
    BC.s_nom_s0_t71        BC.upper_flow_71            -1  BC.lower_flow_71             1
    BC.s_nom_s0_t72        BC.upper_flow_72            -1  BC.lower_flow_72             1
    BC.s_nom_s0_t73        BC.upper_flow_73            -1  BC.lower_flow_73             1
    BC.s_nom_s0_t74        BC.upper_flow_74            -1  BC.lower_flow_74             1
    BC.s_nom_s0_t75        BC.upper_flow_75            -1  BC.lower_flow_75             1
    BC.s_nom_s0_t76        BC.upper_flow_76            -1  BC.lower_flow_76             1
    BC.s_nom_s0_t77        BC.upper_flow_77            -1  BC.lower_flow_77             1
    BC.s_nom_s0_t78        BC.upper_flow_78            -1  BC.lower_flow_78             1
    BC.s_nom_s0_t79        BC.upper_flow_79            -1  BC.lower_flow_79             1
    BC.s_nom_s0_t80        BC.upper_flow_80            -1  BC.lower_flow_80             1
    BC.s_nom_s0_t81        BC.upper_flow_81            -1  BC.lower_flow_81             1
    BC.s_nom_s0_t82        BC.upper_flow_82            -1  BC.lower_flow_82             1
    BC.s_nom_s0_t83        BC.upper_flow_83            -1  BC.lower_flow_83             1
    BC.s_nom_s0_t84        BC.upper_flow_84            -1  BC.lower_flow_84             1
    BC.s_nom_s0_t85        BC.upper_flow_85            -1  BC.lower_flow_85             1
    BC.s_nom_s0_t86        BC.upper_flow_86            -1  BC.lower_flow_86             1
    BC.s_nom_s0_t87        BC.upper_flow_87            -1  BC.lower_flow_87             1
    BC.s_nom_s0_t88        BC.upper_flow_88            -1  BC.lower_flow_88             1
    BC.s_nom_s0_t89        BC.upper_flow_89            -1  BC.lower_flow_89             1
    BC.s_nom_s0_t90        BC.upper_flow_90            -1  BC.lower_flow_90             1
    BC.s_nom_s0_t91        BC.upper_flow_91            -1  BC.lower_flow_91             1
    BC.s_nom_s0_t92        BC.upper_flow_92            -1  BC.lower_flow_92             1
    BC.s_nom_s0_t93        BC.upper_flow_93            -1  BC.lower_flow_93             1
    BC.s_nom_s0_t94        BC.upper_flow_94            -1  BC.lower_flow_94             1
    BC.s_nom_s0_t95        BC.upper_flow_95            -1  BC.lower_flow_95             1
    BC.s_nom_s0_t96        BC.upper_flow_96            -1  BC.lower_flow_96             1
    BC.s_nom_s0_t97        BC.upper_flow_97            -1  BC.lower_flow_97             1
    BC.s_nom_s0_t98        BC.upper_flow_98            -1  BC.lower_flow_98             1
    BC.s_nom_s0_t99        BC.upper_flow_99            -1  BC.lower_flow_99             1
    BC.s_nom_s0_t100       BC.upper_flow_100           -1  BC.lower_flow_100            1
    BC.s_nom_s0_t101       BC.upper_flow_101           -1  BC.lower_flow_101            1
    BC.s_nom_s0_t102       BC.upper_flow_102           -1  BC.lower_flow_102            1
    BC.s_nom_s0_t103       BC.upper_flow_103           -1  BC.lower_flow_103            1
    BC.s_nom_s0_t104       BC.upper_flow_104           -1  BC.lower_flow_104            1
    BC.s_nom_s0_t105       BC.upper_flow_105           -1  BC.lower_flow_105            1
    BC.s_nom_s0_t106       BC.upper_flow_106           -1  BC.lower_flow_106            1
    BC.s_nom_s0_t107       BC.upper_flow_107           -1  BC.lower_flow_107            1
    BC.s_nom_s0_t108       BC.upper_flow_108           -1  BC.lower_flow_108            1
    BC.s_nom_s0_t109       BC.upper_flow_109           -1  BC.lower_flow_109            1
    BC.s_nom_s0_t110       BC.upper_flow_110           -1  BC.lower_flow_110            1
    BC.s_nom_s0_t111       BC.upper_flow_111           -1  BC.lower_flow_111            1
    BC.s_nom_s0_t112       BC.upper_flow_112           -1  BC.lower_flow_112            1
    BC.s_nom_s0_t113       BC.upper_flow_113           -1  BC.lower_flow_113            1
    BC.s_nom_s0_t114       BC.upper_flow_114           -1  BC.lower_flow_114            1
    BC.s_nom_s0_t115       BC.upper_flow_115           -1  BC.lower_flow_115            1
    BC.s_nom_s0_t116       BC.upper_flow_116           -1  BC.lower_flow_116            1
    BC.s_nom_s0_t117       BC.upper_flow_117           -1  BC.lower_flow_117            1
    BC.s_nom_s0_t118       BC.upper_flow_118           -1  BC.lower_flow_118            1
    BC.s_nom_s0_t119       BC.upper_flow_119           -1  BC.lower_flow_119            1
    BC.s_nom_s0_t120       BC.upper_flow_120           -1  BC.lower_flow_120            1
    BC.s_nom_s0_t121       BC.upper_flow_121           -1  BC.lower_flow_121            1
    BC.s_nom_s0_t122       BC.upper_flow_122           -1  BC.lower_flow_122            1
    BC.s_nom_s0_t123       BC.upper_flow_123           -1  BC.lower_flow_123            1
    BC.s_nom_s0_t124       BC.upper_flow_124           -1  BC.lower_flow_124            1
    BC.s_nom_s0_t125       BC.upper_flow_125           -1  BC.lower_flow_125            1
    BC.s_nom_s0_t126       BC.upper_flow_126           -1  BC.lower_flow_126            1
    BC.s_nom_s0_t127       BC.upper_flow_127           -1  BC.lower_flow_127            1
    BC.s_nom_s0_t128       BC.upper_flow_128           -1  BC.lower_flow_128            1
    BC.s_nom_s0_t129       BC.upper_flow_129           -1  BC.lower_flow_129            1
    BC.s_nom_s0_t130       BC.upper_flow_130           -1  BC.lower_flow_130            1
    BC.s_nom_s0_t131       BC.upper_flow_131           -1  BC.lower_flow_131            1
    BC.s_nom_s0_t132       BC.upper_flow_132           -1  BC.lower_flow_132            1
    BC.s_nom_s0_t133       BC.upper_flow_133           -1  BC.lower_flow_133            1
    BC.s_nom_s0_t134       BC.upper_flow_134           -1  BC.lower_flow_134            1
    BC.s_nom_s0_t135       BC.upper_flow_135           -1  BC.lower_flow_135            1
    BC.s_nom_s0_t136       BC.upper_flow_136           -1  BC.lower_flow_136            1
    BC.s_nom_s0_t137       BC.upper_flow_137           -1  BC.lower_flow_137            1
    BC.s_nom_s0_t138       BC.upper_flow_138           -1  BC.lower_flow_138            1
    BC.s_nom_s0_t139       BC.upper_flow_139           -1  BC.lower_flow_139            1
    BC.s_nom_s0_t140       BC.upper_flow_140           -1  BC.lower_flow_140            1
    BC.s_nom_s0_t141       BC.upper_flow_141           -1  BC.lower_flow_141            1
    BC.s_nom_s0_t142       BC.upper_flow_142           -1  BC.lower_flow_142            1
    BC.s_nom_s0_t143       BC.upper_flow_143           -1  BC.lower_flow_143            1
    BC.s_nom_s0_t144       BC.upper_flow_144           -1  BC.lower_flow_144            1
    BC.s_nom_s0_t145       BC.upper_flow_145           -1  BC.lower_flow_145            1
    BC.s_nom_s0_t146       BC.upper_flow_146           -1  BC.lower_flow_146            1
    BC.s_nom_s0_t147       BC.upper_flow_147           -1  BC.lower_flow_147            1
    BC.s_nom_s0_t148       BC.upper_flow_148           -1  BC.lower_flow_148            1
    BC.s_nom_s0_t149       BC.upper_flow_149           -1  BC.lower_flow_149            1
    BC.s_nom_s0_t150       BC.upper_flow_150           -1  BC.lower_flow_150            1
    BC.s_nom_s0_t151       BC.upper_flow_151           -1  BC.lower_flow_151            1
    BC.s_nom_s0_t152       BC.upper_flow_152           -1  BC.lower_flow_152            1
    BC.s_nom_s0_t153       BC.upper_flow_153           -1  BC.lower_flow_153            1
    BC.s_nom_s0_t154       BC.upper_flow_154           -1  BC.lower_flow_154            1
    BC.s_nom_s0_t155       BC.upper_flow_155           -1  BC.lower_flow_155            1
    BC.s_nom_s0_t156       BC.upper_flow_156           -1  BC.lower_flow_156            1
    BC.s_nom_s0_t157       BC.upper_flow_157           -1  BC.lower_flow_157            1
    BC.s_nom_s0_t158       BC.upper_flow_158           -1  BC.lower_flow_158            1
    BC.s_nom_s0_t159       BC.upper_flow_159           -1  BC.lower_flow_159            1
    BC.s_nom_s0_t160       BC.upper_flow_160           -1  BC.lower_flow_160            1
    BC.s_nom_s0_t161       BC.upper_flow_161           -1  BC.lower_flow_161            1
    BC.s_nom_s0_t162       BC.upper_flow_162           -1  BC.lower_flow_162            1
    BC.s_nom_s0_t163       BC.upper_flow_163           -1  BC.lower_flow_163            1
    BC.s_nom_s0_t164       BC.upper_flow_164           -1  BC.lower_flow_164            1
    BC.s_nom_s0_t165       BC.upper_flow_165           -1  BC.lower_flow_165            1
    BC.s_nom_s0_t166       BC.upper_flow_166           -1  BC.lower_flow_166            1
    BC.s_nom_s0_t167       BC.upper_flow_167           -1  BC.lower_flow_167            1
    BC.p0_s0_t0            B_LV.p_balance_0            -1  C_LV.p_balance_0             1
    BC.p0_s0_t0            BC.dc_flow_0                 1  BC.upper_flow_0              1
    BC.p0_s0_t0            BC.lower_flow_0              1
    BC.p0_s0_t1            B_LV.p_balance_1            -1  C_LV.p_balance_1             1
    BC.p0_s0_t1            BC.dc_flow_1                 1  BC.upper_flow_1              1
    BC.p0_s0_t1            BC.lower_flow_1              1
    BC.p0_s0_t2            B_LV.p_balance_2            -1  C_LV.p_balance_2             1
    BC.p0_s0_t2            BC.dc_flow_2                 1  BC.upper_flow_2              1
    BC.p0_s0_t2            BC.lower_flow_2              1
    BC.p0_s0_t3            B_LV.p_balance_3            -1  C_LV.p_balance_3             1
    BC.p0_s0_t3            BC.dc_flow_3                 1  BC.upper_flow_3              1
    BC.p0_s0_t3            BC.lower_flow_3              1
    BC.p0_s0_t4            B_LV.p_balance_4            -1  C_LV.p_balance_4             1
    BC.p0_s0_t4            BC.dc_flow_4                 1  BC.upper_flow_4              1
    BC.p0_s0_t4            BC.lower_flow_4              1
    BC.p0_s0_t5            B_LV.p_balance_5            -1  C_LV.p_balance_5             1
    BC.p0_s0_t5            BC.dc_flow_5                 1  BC.upper_flow_5              1
    BC.p0_s0_t5            BC.lower_flow_5              1
    BC.p0_s0_t6            B_LV.p_balance_6            -1  C_LV.p_balance_6             1
    BC.p0_s0_t6            BC.dc_flow_6                 1  BC.upper_flow_6              1
    BC.p0_s0_t6            BC.lower_flow_6              1
    BC.p0_s0_t7            B_LV.p_balance_7            -1  C_LV.p_balance_7             1
    BC.p0_s0_t7            BC.dc_flow_7                 1  BC.upper_flow_7              1
    BC.p0_s0_t7            BC.lower_flow_7              1
    BC.p0_s0_t8            B_LV.p_balance_8            -1  C_LV.p_balance_8             1
    BC.p0_s0_t8            BC.dc_flow_8                 1  BC.upper_flow_8              1
    BC.p0_s0_t8            BC.lower_flow_8              1
    BC.p0_s0_t9            B_LV.p_balance_9            -1  C_LV.p_balance_9             1
    BC.p0_s0_t9            BC.dc_flow_9                 1  BC.upper_flow_9              1
    BC.p0_s0_t9            BC.lower_flow_9              1
    BC.p0_s0_t10           B_LV.p_balance_10           -1  C_LV.p_balance_10            1
    BC.p0_s0_t10           BC.dc_flow_10                1  BC.upper_flow_10             1
    BC.p0_s0_t10           BC.lower_flow_10             1
    BC.p0_s0_t11           B_LV.p_balance_11           -1  C_LV.p_balance_11            1
    BC.p0_s0_t11           BC.dc_flow_11                1  BC.upper_flow_11             1
    BC.p0_s0_t11           BC.lower_flow_11             1
    BC.p0_s0_t12           B_LV.p_balance_12           -1  C_LV.p_balance_12            1
    BC.p0_s0_t12           BC.dc_flow_12                1  BC.upper_flow_12             1
    BC.p0_s0_t12           BC.lower_flow_12             1
    BC.p0_s0_t13           B_LV.p_balance_13           -1  C_LV.p_balance_13            1
    BC.p0_s0_t13           BC.dc_flow_13                1  BC.upper_flow_13             1
    BC.p0_s0_t13           BC.lower_flow_13             1
    BC.p0_s0_t14           B_LV.p_balance_14           -1  C_LV.p_balance_14            1
    BC.p0_s0_t14           BC.dc_flow_14                1  BC.upper_flow_14             1
    BC.p0_s0_t14           BC.lower_flow_14             1
    BC.p0_s0_t15           B_LV.p_balance_15           -1  C_LV.p_balance_15            1
    BC.p0_s0_t15           BC.dc_flow_15                1  BC.upper_flow_15             1
    BC.p0_s0_t15           BC.lower_flow_15             1
    BC.p0_s0_t16           B_LV.p_balance_16           -1  C_LV.p_balance_16            1
    BC.p0_s0_t16           BC.dc_flow_16                1  BC.upper_flow_16             1
    BC.p0_s0_t16           BC.lower_flow_16             1
    BC.p0_s0_t17           B_LV.p_balance_17           -1  C_LV.p_balance_17            1
    BC.p0_s0_t17           BC.dc_flow_17                1  BC.upper_flow_17             1
    BC.p0_s0_t17           BC.lower_flow_17             1
    BC.p0_s0_t18           B_LV.p_balance_18           -1  C_LV.p_balance_18            1
    BC.p0_s0_t18           BC.dc_flow_18                1  BC.upper_flow_18             1
    BC.p0_s0_t18           BC.lower_flow_18             1
    BC.p0_s0_t19           B_LV.p_balance_19           -1  C_LV.p_balance_19            1
    BC.p0_s0_t19           BC.dc_flow_19                1  BC.upper_flow_19             1
    BC.p0_s0_t19           BC.lower_flow_19             1
    BC.p0_s0_t20           B_LV.p_balance_20           -1  C_LV.p_balance_20            1
    BC.p0_s0_t20           BC.dc_flow_20                1  BC.upper_flow_20             1
    BC.p0_s0_t20           BC.lower_flow_20             1
    BC.p0_s0_t21           B_LV.p_balance_21           -1  C_LV.p_balance_21            1
    BC.p0_s0_t21           BC.dc_flow_21                1  BC.upper_flow_21             1
    BC.p0_s0_t21           BC.lower_flow_21             1
    BC.p0_s0_t22           B_LV.p_balance_22           -1  C_LV.p_balance_22            1
    BC.p0_s0_t22           BC.dc_flow_22                1  BC.upper_flow_22             1
    BC.p0_s0_t22           BC.lower_flow_22             1
    BC.p0_s0_t23           B_LV.p_balance_23           -1  C_LV.p_balance_23            1
    BC.p0_s0_t23           BC.dc_flow_23                1  BC.upper_flow_23             1
    BC.p0_s0_t23           BC.lower_flow_23             1
    BC.p0_s0_t24           B_LV.p_balance_24           -1  C_LV.p_balance_24            1
    BC.p0_s0_t24           BC.dc_flow_24                1  BC.upper_flow_24             1
    BC.p0_s0_t24           BC.lower_flow_24             1
    BC.p0_s0_t25           B_LV.p_balance_25           -1  C_LV.p_balance_25            1
    BC.p0_s0_t25           BC.dc_flow_25                1  BC.upper_flow_25             1
    BC.p0_s0_t25           BC.lower_flow_25             1
    BC.p0_s0_t26           B_LV.p_balance_26           -1  C_LV.p_balance_26            1
    BC.p0_s0_t26           BC.dc_flow_26                1  BC.upper_flow_26             1
    BC.p0_s0_t26           BC.lower_flow_26             1
    BC.p0_s0_t27           B_LV.p_balance_27           -1  C_LV.p_balance_27            1
    BC.p0_s0_t27           BC.dc_flow_27                1  BC.upper_flow_27             1
    BC.p0_s0_t27           BC.lower_flow_27             1
    BC.p0_s0_t28           B_LV.p_balance_28           -1  C_LV.p_balance_28            1
    BC.p0_s0_t28           BC.dc_flow_28                1  BC.upper_flow_28             1
    BC.p0_s0_t28           BC.lower_flow_28             1
    BC.p0_s0_t29           B_LV.p_balance_29           -1  C_LV.p_balance_29            1
    BC.p0_s0_t29           BC.dc_flow_29                1  BC.upper_flow_29             1
    BC.p0_s0_t29           BC.lower_flow_29             1
    BC.p0_s0_t30           B_LV.p_balance_30           -1  C_LV.p_balance_30            1
    BC.p0_s0_t30           BC.dc_flow_30                1  BC.upper_flow_30             1
    BC.p0_s0_t30           BC.lower_flow_30             1
    BC.p0_s0_t31           B_LV.p_balance_31           -1  C_LV.p_balance_31            1
    BC.p0_s0_t31           BC.dc_flow_31                1  BC.upper_flow_31             1
    BC.p0_s0_t31           BC.lower_flow_31             1
    BC.p0_s0_t32           B_LV.p_balance_32           -1  C_LV.p_balance_32            1
    BC.p0_s0_t32           BC.dc_flow_32                1  BC.upper_flow_32             1
    BC.p0_s0_t32           BC.lower_flow_32             1
    BC.p0_s0_t33           B_LV.p_balance_33           -1  C_LV.p_balance_33            1
    BC.p0_s0_t33           BC.dc_flow_33                1  BC.upper_flow_33             1
    BC.p0_s0_t33           BC.lower_flow_33             1
    BC.p0_s0_t34           B_LV.p_balance_34           -1  C_LV.p_balance_34            1
    BC.p0_s0_t34           BC.dc_flow_34                1  BC.upper_flow_34             1
    BC.p0_s0_t34           BC.lower_flow_34             1
    BC.p0_s0_t35           B_LV.p_balance_35           -1  C_LV.p_balance_35            1
    BC.p0_s0_t35           BC.dc_flow_35                1  BC.upper_flow_35             1
    BC.p0_s0_t35           BC.lower_flow_35             1
    BC.p0_s0_t36           B_LV.p_balance_36           -1  C_LV.p_balance_36            1
    BC.p0_s0_t36           BC.dc_flow_36                1  BC.upper_flow_36             1
    BC.p0_s0_t36           BC.lower_flow_36             1
    BC.p0_s0_t37           B_LV.p_balance_37           -1  C_LV.p_balance_37            1
    BC.p0_s0_t37           BC.dc_flow_37                1  BC.upper_flow_37             1
    BC.p0_s0_t37           BC.lower_flow_37             1
    BC.p0_s0_t38           B_LV.p_balance_38           -1  C_LV.p_balance_38            1
    BC.p0_s0_t38           BC.dc_flow_38                1  BC.upper_flow_38             1
    BC.p0_s0_t38           BC.lower_flow_38             1
    BC.p0_s0_t39           B_LV.p_balance_39           -1  C_LV.p_balance_39            1
    BC.p0_s0_t39           BC.dc_flow_39                1  BC.upper_flow_39             1
    BC.p0_s0_t39           BC.lower_flow_39             1
    BC.p0_s0_t40           B_LV.p_balance_40           -1  C_LV.p_balance_40            1
    BC.p0_s0_t40           BC.dc_flow_40                1  BC.upper_flow_40             1
    BC.p0_s0_t40           BC.lower_flow_40             1
    BC.p0_s0_t41           B_LV.p_balance_41           -1  C_LV.p_balance_41            1
    BC.p0_s0_t41           BC.dc_flow_41                1  BC.upper_flow_41             1
    BC.p0_s0_t41           BC.lower_flow_41             1
    BC.p0_s0_t42           B_LV.p_balance_42           -1  C_LV.p_balance_42            1
    BC.p0_s0_t42           BC.dc_flow_42                1  BC.upper_flow_42             1
    BC.p0_s0_t42           BC.lower_flow_42             1
    BC.p0_s0_t43           B_LV.p_balance_43           -1  C_LV.p_balance_43            1
    BC.p0_s0_t43           BC.dc_flow_43                1  BC.upper_flow_43             1
    BC.p0_s0_t43           BC.lower_flow_43             1
    BC.p0_s0_t44           B_LV.p_balance_44           -1  C_LV.p_balance_44            1
    BC.p0_s0_t44           BC.dc_flow_44                1  BC.upper_flow_44             1
    BC.p0_s0_t44           BC.lower_flow_44             1
    BC.p0_s0_t45           B_LV.p_balance_45           -1  C_LV.p_balance_45            1
    BC.p0_s0_t45           BC.dc_flow_45                1  BC.upper_flow_45             1
    BC.p0_s0_t45           BC.lower_flow_45             1
    BC.p0_s0_t46           B_LV.p_balance_46           -1  C_LV.p_balance_46            1
    BC.p0_s0_t46           BC.dc_flow_46                1  BC.upper_flow_46             1
    BC.p0_s0_t46           BC.lower_flow_46             1
    BC.p0_s0_t47           B_LV.p_balance_47           -1  C_LV.p_balance_47            1
    BC.p0_s0_t47           BC.dc_flow_47                1  BC.upper_flow_47             1
    BC.p0_s0_t47           BC.lower_flow_47             1
    BC.p0_s0_t48           B_LV.p_balance_48           -1  C_LV.p_balance_48            1
    BC.p0_s0_t48           BC.dc_flow_48                1  BC.upper_flow_48             1
    BC.p0_s0_t48           BC.lower_flow_48             1
    BC.p0_s0_t49           B_LV.p_balance_49           -1  C_LV.p_balance_49            1
    BC.p0_s0_t49           BC.dc_flow_49                1  BC.upper_flow_49             1
    BC.p0_s0_t49           BC.lower_flow_49             1
    BC.p0_s0_t50           B_LV.p_balance_50           -1  C_LV.p_balance_50            1
    BC.p0_s0_t50           BC.dc_flow_50                1  BC.upper_flow_50             1
    BC.p0_s0_t50           BC.lower_flow_50             1
    BC.p0_s0_t51           B_LV.p_balance_51           -1  C_LV.p_balance_51            1
    BC.p0_s0_t51           BC.dc_flow_51                1  BC.upper_flow_51             1
    BC.p0_s0_t51           BC.lower_flow_51             1
    BC.p0_s0_t52           B_LV.p_balance_52           -1  C_LV.p_balance_52            1
    BC.p0_s0_t52           BC.dc_flow_52                1  BC.upper_flow_52             1
    BC.p0_s0_t52           BC.lower_flow_52             1
    BC.p0_s0_t53           B_LV.p_balance_53           -1  C_LV.p_balance_53            1
    BC.p0_s0_t53           BC.dc_flow_53                1  BC.upper_flow_53             1
    BC.p0_s0_t53           BC.lower_flow_53             1
    BC.p0_s0_t54           B_LV.p_balance_54           -1  C_LV.p_balance_54            1
    BC.p0_s0_t54           BC.dc_flow_54                1  BC.upper_flow_54             1
    BC.p0_s0_t54           BC.lower_flow_54             1
    BC.p0_s0_t55           B_LV.p_balance_55           -1  C_LV.p_balance_55            1
    BC.p0_s0_t55           BC.dc_flow_55                1  BC.upper_flow_55             1
    BC.p0_s0_t55           BC.lower_flow_55             1
    BC.p0_s0_t56           B_LV.p_balance_56           -1  C_LV.p_balance_56            1
    BC.p0_s0_t56           BC.dc_flow_56                1  BC.upper_flow_56             1
    BC.p0_s0_t56           BC.lower_flow_56             1
    BC.p0_s0_t57           B_LV.p_balance_57           -1  C_LV.p_balance_57            1
    BC.p0_s0_t57           BC.dc_flow_57                1  BC.upper_flow_57             1
    BC.p0_s0_t57           BC.lower_flow_57             1
    BC.p0_s0_t58           B_LV.p_balance_58           -1  C_LV.p_balance_58            1
    BC.p0_s0_t58           BC.dc_flow_58                1  BC.upper_flow_58             1
    BC.p0_s0_t58           BC.lower_flow_58             1
    BC.p0_s0_t59           B_LV.p_balance_59           -1  C_LV.p_balance_59            1
    BC.p0_s0_t59           BC.dc_flow_59                1  BC.upper_flow_59             1
    BC.p0_s0_t59           BC.lower_flow_59             1
    BC.p0_s0_t60           B_LV.p_balance_60           -1  C_LV.p_balance_60            1
    BC.p0_s0_t60           BC.dc_flow_60                1  BC.upper_flow_60             1
    BC.p0_s0_t60           BC.lower_flow_60             1
    BC.p0_s0_t61           B_LV.p_balance_61           -1  C_LV.p_balance_61            1
    BC.p0_s0_t61           BC.dc_flow_61                1  BC.upper_flow_61             1
    BC.p0_s0_t61           BC.lower_flow_61             1
    BC.p0_s0_t62           B_LV.p_balance_62           -1  C_LV.p_balance_62            1
    BC.p0_s0_t62           BC.dc_flow_62                1  BC.upper_flow_62             1
    BC.p0_s0_t62           BC.lower_flow_62             1
    BC.p0_s0_t63           B_LV.p_balance_63           -1  C_LV.p_balance_63            1
    BC.p0_s0_t63           BC.dc_flow_63                1  BC.upper_flow_63             1
    BC.p0_s0_t63           BC.lower_flow_63             1
    BC.p0_s0_t64           B_LV.p_balance_64           -1  C_LV.p_balance_64            1
    BC.p0_s0_t64           BC.dc_flow_64                1  BC.upper_flow_64             1
    BC.p0_s0_t64           BC.lower_flow_64             1
    BC.p0_s0_t65           B_LV.p_balance_65           -1  C_LV.p_balance_65            1
    BC.p0_s0_t65           BC.dc_flow_65                1  BC.upper_flow_65             1
    BC.p0_s0_t65           BC.lower_flow_65             1
    BC.p0_s0_t66           B_LV.p_balance_66           -1  C_LV.p_balance_66            1
    BC.p0_s0_t66           BC.dc_flow_66                1  BC.upper_flow_66             1
    BC.p0_s0_t66           BC.lower_flow_66             1
    BC.p0_s0_t67           B_LV.p_balance_67           -1  C_LV.p_balance_67            1
    BC.p0_s0_t67           BC.dc_flow_67                1  BC.upper_flow_67             1
    BC.p0_s0_t67           BC.lower_flow_67             1
    BC.p0_s0_t68           B_LV.p_balance_68           -1  C_LV.p_balance_68            1
    BC.p0_s0_t68           BC.dc_flow_68                1  BC.upper_flow_68             1
    BC.p0_s0_t68           BC.lower_flow_68             1
    BC.p0_s0_t69           B_LV.p_balance_69           -1  C_LV.p_balance_69            1
    BC.p0_s0_t69           BC.dc_flow_69                1  BC.upper_flow_69             1
    BC.p0_s0_t69           BC.lower_flow_69             1
    BC.p0_s0_t70           B_LV.p_balance_70           -1  C_LV.p_balance_70            1
    BC.p0_s0_t70           BC.dc_flow_70                1  BC.upper_flow_70             1
    BC.p0_s0_t70           BC.lower_flow_70             1
    BC.p0_s0_t71           B_LV.p_balance_71           -1  C_LV.p_balance_71            1
    BC.p0_s0_t71           BC.dc_flow_71                1  BC.upper_flow_71             1
    BC.p0_s0_t71           BC.lower_flow_71             1
    BC.p0_s0_t72           B_LV.p_balance_72           -1  C_LV.p_balance_72            1
    BC.p0_s0_t72           BC.dc_flow_72                1  BC.upper_flow_72             1
    BC.p0_s0_t72           BC.lower_flow_72             1
    BC.p0_s0_t73           B_LV.p_balance_73           -1  C_LV.p_balance_73            1
    BC.p0_s0_t73           BC.dc_flow_73                1  BC.upper_flow_73             1
    BC.p0_s0_t73           BC.lower_flow_73             1
    BC.p0_s0_t74           B_LV.p_balance_74           -1  C_LV.p_balance_74            1
    BC.p0_s0_t74           BC.dc_flow_74                1  BC.upper_flow_74             1
    BC.p0_s0_t74           BC.lower_flow_74             1
    BC.p0_s0_t75           B_LV.p_balance_75           -1  C_LV.p_balance_75            1
    BC.p0_s0_t75           BC.dc_flow_75                1  BC.upper_flow_75             1
    BC.p0_s0_t75           BC.lower_flow_75             1
    BC.p0_s0_t76           B_LV.p_balance_76           -1  C_LV.p_balance_76            1
    BC.p0_s0_t76           BC.dc_flow_76                1  BC.upper_flow_76             1
    BC.p0_s0_t76           BC.lower_flow_76             1
    BC.p0_s0_t77           B_LV.p_balance_77           -1  C_LV.p_balance_77            1
    BC.p0_s0_t77           BC.dc_flow_77                1  BC.upper_flow_77             1
    BC.p0_s0_t77           BC.lower_flow_77             1
    BC.p0_s0_t78           B_LV.p_balance_78           -1  C_LV.p_balance_78            1
    BC.p0_s0_t78           BC.dc_flow_78                1  BC.upper_flow_78             1
    BC.p0_s0_t78           BC.lower_flow_78             1
    BC.p0_s0_t79           B_LV.p_balance_79           -1  C_LV.p_balance_79            1
    BC.p0_s0_t79           BC.dc_flow_79                1  BC.upper_flow_79             1
    BC.p0_s0_t79           BC.lower_flow_79             1
    BC.p0_s0_t80           B_LV.p_balance_80           -1  C_LV.p_balance_80            1
    BC.p0_s0_t80           BC.dc_flow_80                1  BC.upper_flow_80             1
    BC.p0_s0_t80           BC.lower_flow_80             1
    BC.p0_s0_t81           B_LV.p_balance_81           -1  C_LV.p_balance_81            1
    BC.p0_s0_t81           BC.dc_flow_81                1  BC.upper_flow_81             1
    BC.p0_s0_t81           BC.lower_flow_81             1
    BC.p0_s0_t82           B_LV.p_balance_82           -1  C_LV.p_balance_82            1
    BC.p0_s0_t82           BC.dc_flow_82                1  BC.upper_flow_82             1
    BC.p0_s0_t82           BC.lower_flow_82             1
    BC.p0_s0_t83           B_LV.p_balance_83           -1  C_LV.p_balance_83            1
    BC.p0_s0_t83           BC.dc_flow_83                1  BC.upper_flow_83             1
    BC.p0_s0_t83           BC.lower_flow_83             1
    BC.p0_s0_t84           B_LV.p_balance_84           -1  C_LV.p_balance_84            1
    BC.p0_s0_t84           BC.dc_flow_84                1  BC.upper_flow_84             1
    BC.p0_s0_t84           BC.lower_flow_84             1
    BC.p0_s0_t85           B_LV.p_balance_85           -1  C_LV.p_balance_85            1
    BC.p0_s0_t85           BC.dc_flow_85                1  BC.upper_flow_85             1
    BC.p0_s0_t85           BC.lower_flow_85             1
    BC.p0_s0_t86           B_LV.p_balance_86           -1  C_LV.p_balance_86            1
    BC.p0_s0_t86           BC.dc_flow_86                1  BC.upper_flow_86             1
    BC.p0_s0_t86           BC.lower_flow_86             1
    BC.p0_s0_t87           B_LV.p_balance_87           -1  C_LV.p_balance_87            1
    BC.p0_s0_t87           BC.dc_flow_87                1  BC.upper_flow_87             1
    BC.p0_s0_t87           BC.lower_flow_87             1
    BC.p0_s0_t88           B_LV.p_balance_88           -1  C_LV.p_balance_88            1
    BC.p0_s0_t88           BC.dc_flow_88                1  BC.upper_flow_88             1
    BC.p0_s0_t88           BC.lower_flow_88             1
    BC.p0_s0_t89           B_LV.p_balance_89           -1  C_LV.p_balance_89            1
    BC.p0_s0_t89           BC.dc_flow_89                1  BC.upper_flow_89             1
    BC.p0_s0_t89           BC.lower_flow_89             1
    BC.p0_s0_t90           B_LV.p_balance_90           -1  C_LV.p_balance_90            1
    BC.p0_s0_t90           BC.dc_flow_90                1  BC.upper_flow_90             1
    BC.p0_s0_t90           BC.lower_flow_90             1
    BC.p0_s0_t91           B_LV.p_balance_91           -1  C_LV.p_balance_91            1
    BC.p0_s0_t91           BC.dc_flow_91                1  BC.upper_flow_91             1
    BC.p0_s0_t91           BC.lower_flow_91             1
    BC.p0_s0_t92           B_LV.p_balance_92           -1  C_LV.p_balance_92            1
    BC.p0_s0_t92           BC.dc_flow_92                1  BC.upper_flow_92             1
    BC.p0_s0_t92           BC.lower_flow_92             1
    BC.p0_s0_t93           B_LV.p_balance_93           -1  C_LV.p_balance_93            1
    BC.p0_s0_t93           BC.dc_flow_93                1  BC.upper_flow_93             1
    BC.p0_s0_t93           BC.lower_flow_93             1
    BC.p0_s0_t94           B_LV.p_balance_94           -1  C_LV.p_balance_94            1
    BC.p0_s0_t94           BC.dc_flow_94                1  BC.upper_flow_94             1
    BC.p0_s0_t94           BC.lower_flow_94             1
    BC.p0_s0_t95           B_LV.p_balance_95           -1  C_LV.p_balance_95            1
    BC.p0_s0_t95           BC.dc_flow_95                1  BC.upper_flow_95             1
    BC.p0_s0_t95           BC.lower_flow_95             1
    BC.p0_s0_t96           B_LV.p_balance_96           -1  C_LV.p_balance_96            1
    BC.p0_s0_t96           BC.dc_flow_96                1  BC.upper_flow_96             1
    BC.p0_s0_t96           BC.lower_flow_96             1
    BC.p0_s0_t97           B_LV.p_balance_97           -1  C_LV.p_balance_97            1
    BC.p0_s0_t97           BC.dc_flow_97                1  BC.upper_flow_97             1
    BC.p0_s0_t97           BC.lower_flow_97             1
    BC.p0_s0_t98           B_LV.p_balance_98           -1  C_LV.p_balance_98            1
    BC.p0_s0_t98           BC.dc_flow_98                1  BC.upper_flow_98             1
    BC.p0_s0_t98           BC.lower_flow_98             1
    BC.p0_s0_t99           B_LV.p_balance_99           -1  C_LV.p_balance_99            1
    BC.p0_s0_t99           BC.dc_flow_99                1  BC.upper_flow_99             1
    BC.p0_s0_t99           BC.lower_flow_99             1
    BC.p0_s0_t100          B_LV.p_balance_100          -1  C_LV.p_balance_100           1
    BC.p0_s0_t100          BC.dc_flow_100               1  BC.upper_flow_100            1
    BC.p0_s0_t100          BC.lower_flow_100            1
    BC.p0_s0_t101          B_LV.p_balance_101          -1  C_LV.p_balance_101           1
    BC.p0_s0_t101          BC.dc_flow_101               1  BC.upper_flow_101            1
    BC.p0_s0_t101          BC.lower_flow_101            1
    BC.p0_s0_t102          B_LV.p_balance_102          -1  C_LV.p_balance_102           1
    BC.p0_s0_t102          BC.dc_flow_102               1  BC.upper_flow_102            1
    BC.p0_s0_t102          BC.lower_flow_102            1
    BC.p0_s0_t103          B_LV.p_balance_103          -1  C_LV.p_balance_103           1
    BC.p0_s0_t103          BC.dc_flow_103               1  BC.upper_flow_103            1
    BC.p0_s0_t103          BC.lower_flow_103            1
    BC.p0_s0_t104          B_LV.p_balance_104          -1  C_LV.p_balance_104           1
    BC.p0_s0_t104          BC.dc_flow_104               1  BC.upper_flow_104            1
    BC.p0_s0_t104          BC.lower_flow_104            1
    BC.p0_s0_t105          B_LV.p_balance_105          -1  C_LV.p_balance_105           1
    BC.p0_s0_t105          BC.dc_flow_105               1  BC.upper_flow_105            1
    BC.p0_s0_t105          BC.lower_flow_105            1
    BC.p0_s0_t106          B_LV.p_balance_106          -1  C_LV.p_balance_106           1
    BC.p0_s0_t106          BC.dc_flow_106               1  BC.upper_flow_106            1
    BC.p0_s0_t106          BC.lower_flow_106            1
    BC.p0_s0_t107          B_LV.p_balance_107          -1  C_LV.p_balance_107           1
    BC.p0_s0_t107          BC.dc_flow_107               1  BC.upper_flow_107            1
    BC.p0_s0_t107          BC.lower_flow_107            1
    BC.p0_s0_t108          B_LV.p_balance_108          -1  C_LV.p_balance_108           1
    BC.p0_s0_t108          BC.dc_flow_108               1  BC.upper_flow_108            1
    BC.p0_s0_t108          BC.lower_flow_108            1
    BC.p0_s0_t109          B_LV.p_balance_109          -1  C_LV.p_balance_109           1
    BC.p0_s0_t109          BC.dc_flow_109               1  BC.upper_flow_109            1
    BC.p0_s0_t109          BC.lower_flow_109            1
    BC.p0_s0_t110          B_LV.p_balance_110          -1  C_LV.p_balance_110           1
    BC.p0_s0_t110          BC.dc_flow_110               1  BC.upper_flow_110            1
    BC.p0_s0_t110          BC.lower_flow_110            1
    BC.p0_s0_t111          B_LV.p_balance_111          -1  C_LV.p_balance_111           1
    BC.p0_s0_t111          BC.dc_flow_111               1  BC.upper_flow_111            1
    BC.p0_s0_t111          BC.lower_flow_111            1
    BC.p0_s0_t112          B_LV.p_balance_112          -1  C_LV.p_balance_112           1
    BC.p0_s0_t112          BC.dc_flow_112               1  BC.upper_flow_112            1
    BC.p0_s0_t112          BC.lower_flow_112            1
    BC.p0_s0_t113          B_LV.p_balance_113          -1  C_LV.p_balance_113           1
    BC.p0_s0_t113          BC.dc_flow_113               1  BC.upper_flow_113            1
    BC.p0_s0_t113          BC.lower_flow_113            1
    BC.p0_s0_t114          B_LV.p_balance_114          -1  C_LV.p_balance_114           1
    BC.p0_s0_t114          BC.dc_flow_114               1  BC.upper_flow_114            1
    BC.p0_s0_t114          BC.lower_flow_114            1
    BC.p0_s0_t115          B_LV.p_balance_115          -1  C_LV.p_balance_115           1
    BC.p0_s0_t115          BC.dc_flow_115               1  BC.upper_flow_115            1
    BC.p0_s0_t115          BC.lower_flow_115            1
    BC.p0_s0_t116          B_LV.p_balance_116          -1  C_LV.p_balance_116           1
    BC.p0_s0_t116          BC.dc_flow_116               1  BC.upper_flow_116            1
    BC.p0_s0_t116          BC.lower_flow_116            1
    BC.p0_s0_t117          B_LV.p_balance_117          -1  C_LV.p_balance_117           1
    BC.p0_s0_t117          BC.dc_flow_117               1  BC.upper_flow_117            1
    BC.p0_s0_t117          BC.lower_flow_117            1
    BC.p0_s0_t118          B_LV.p_balance_118          -1  C_LV.p_balance_118           1
    BC.p0_s0_t118          BC.dc_flow_118               1  BC.upper_flow_118            1
    BC.p0_s0_t118          BC.lower_flow_118            1
    BC.p0_s0_t119          B_LV.p_balance_119          -1  C_LV.p_balance_119           1
    BC.p0_s0_t119          BC.dc_flow_119               1  BC.upper_flow_119            1
    BC.p0_s0_t119          BC.lower_flow_119            1
    BC.p0_s0_t120          B_LV.p_balance_120          -1  C_LV.p_balance_120           1
    BC.p0_s0_t120          BC.dc_flow_120               1  BC.upper_flow_120            1
    BC.p0_s0_t120          BC.lower_flow_120            1
    BC.p0_s0_t121          B_LV.p_balance_121          -1  C_LV.p_balance_121           1
    BC.p0_s0_t121          BC.dc_flow_121               1  BC.upper_flow_121            1
    BC.p0_s0_t121          BC.lower_flow_121            1
    BC.p0_s0_t122          B_LV.p_balance_122          -1  C_LV.p_balance_122           1
    BC.p0_s0_t122          BC.dc_flow_122               1  BC.upper_flow_122            1
    BC.p0_s0_t122          BC.lower_flow_122            1
    BC.p0_s0_t123          B_LV.p_balance_123          -1  C_LV.p_balance_123           1
    BC.p0_s0_t123          BC.dc_flow_123               1  BC.upper_flow_123            1
    BC.p0_s0_t123          BC.lower_flow_123            1
    BC.p0_s0_t124          B_LV.p_balance_124          -1  C_LV.p_balance_124           1
    BC.p0_s0_t124          BC.dc_flow_124               1  BC.upper_flow_124            1
    BC.p0_s0_t124          BC.lower_flow_124            1
    BC.p0_s0_t125          B_LV.p_balance_125          -1  C_LV.p_balance_125           1
    BC.p0_s0_t125          BC.dc_flow_125               1  BC.upper_flow_125            1
    BC.p0_s0_t125          BC.lower_flow_125            1
    BC.p0_s0_t126          B_LV.p_balance_126          -1  C_LV.p_balance_126           1
    BC.p0_s0_t126          BC.dc_flow_126               1  BC.upper_flow_126            1
    BC.p0_s0_t126          BC.lower_flow_126            1
    BC.p0_s0_t127          B_LV.p_balance_127          -1  C_LV.p_balance_127           1
    BC.p0_s0_t127          BC.dc_flow_127               1  BC.upper_flow_127            1
    BC.p0_s0_t127          BC.lower_flow_127            1
    BC.p0_s0_t128          B_LV.p_balance_128          -1  C_LV.p_balance_128           1
    BC.p0_s0_t128          BC.dc_flow_128               1  BC.upper_flow_128            1
    BC.p0_s0_t128          BC.lower_flow_128            1
    BC.p0_s0_t129          B_LV.p_balance_129          -1  C_LV.p_balance_129           1
    BC.p0_s0_t129          BC.dc_flow_129               1  BC.upper_flow_129            1
    BC.p0_s0_t129          BC.lower_flow_129            1
    BC.p0_s0_t130          B_LV.p_balance_130          -1  C_LV.p_balance_130           1
    BC.p0_s0_t130          BC.dc_flow_130               1  BC.upper_flow_130            1
    BC.p0_s0_t130          BC.lower_flow_130            1
    BC.p0_s0_t131          B_LV.p_balance_131          -1  C_LV.p_balance_131           1
    BC.p0_s0_t131          BC.dc_flow_131               1  BC.upper_flow_131            1
    BC.p0_s0_t131          BC.lower_flow_131            1
    BC.p0_s0_t132          B_LV.p_balance_132          -1  C_LV.p_balance_132           1
    BC.p0_s0_t132          BC.dc_flow_132               1  BC.upper_flow_132            1
    BC.p0_s0_t132          BC.lower_flow_132            1
    BC.p0_s0_t133          B_LV.p_balance_133          -1  C_LV.p_balance_133           1
    BC.p0_s0_t133          BC.dc_flow_133               1  BC.upper_flow_133            1
    BC.p0_s0_t133          BC.lower_flow_133            1
    BC.p0_s0_t134          B_LV.p_balance_134          -1  C_LV.p_balance_134           1
    BC.p0_s0_t134          BC.dc_flow_134               1  BC.upper_flow_134            1
    BC.p0_s0_t134          BC.lower_flow_134            1
    BC.p0_s0_t135          B_LV.p_balance_135          -1  C_LV.p_balance_135           1
    BC.p0_s0_t135          BC.dc_flow_135               1  BC.upper_flow_135            1
    BC.p0_s0_t135          BC.lower_flow_135            1
    BC.p0_s0_t136          B_LV.p_balance_136          -1  C_LV.p_balance_136           1
    BC.p0_s0_t136          BC.dc_flow_136               1  BC.upper_flow_136            1
    BC.p0_s0_t136          BC.lower_flow_136            1
    BC.p0_s0_t137          B_LV.p_balance_137          -1  C_LV.p_balance_137           1
    BC.p0_s0_t137          BC.dc_flow_137               1  BC.upper_flow_137            1
    BC.p0_s0_t137          BC.lower_flow_137            1
    BC.p0_s0_t138          B_LV.p_balance_138          -1  C_LV.p_balance_138           1
    BC.p0_s0_t138          BC.dc_flow_138               1  BC.upper_flow_138            1
    BC.p0_s0_t138          BC.lower_flow_138            1
    BC.p0_s0_t139          B_LV.p_balance_139          -1  C_LV.p_balance_139           1
    BC.p0_s0_t139          BC.dc_flow_139               1  BC.upper_flow_139            1
    BC.p0_s0_t139          BC.lower_flow_139            1
    BC.p0_s0_t140          B_LV.p_balance_140          -1  C_LV.p_balance_140           1
    BC.p0_s0_t140          BC.dc_flow_140               1  BC.upper_flow_140            1
    BC.p0_s0_t140          BC.lower_flow_140            1
    BC.p0_s0_t141          B_LV.p_balance_141          -1  C_LV.p_balance_141           1
    BC.p0_s0_t141          BC.dc_flow_141               1  BC.upper_flow_141            1
    BC.p0_s0_t141          BC.lower_flow_141            1
    BC.p0_s0_t142          B_LV.p_balance_142          -1  C_LV.p_balance_142           1
    BC.p0_s0_t142          BC.dc_flow_142               1  BC.upper_flow_142            1
    BC.p0_s0_t142          BC.lower_flow_142            1
    BC.p0_s0_t143          B_LV.p_balance_143          -1  C_LV.p_balance_143           1
    BC.p0_s0_t143          BC.dc_flow_143               1  BC.upper_flow_143            1
    BC.p0_s0_t143          BC.lower_flow_143            1
    BC.p0_s0_t144          B_LV.p_balance_144          -1  C_LV.p_balance_144           1
    BC.p0_s0_t144          BC.dc_flow_144               1  BC.upper_flow_144            1
    BC.p0_s0_t144          BC.lower_flow_144            1
    BC.p0_s0_t145          B_LV.p_balance_145          -1  C_LV.p_balance_145           1
    BC.p0_s0_t145          BC.dc_flow_145               1  BC.upper_flow_145            1
    BC.p0_s0_t145          BC.lower_flow_145            1
    BC.p0_s0_t146          B_LV.p_balance_146          -1  C_LV.p_balance_146           1
    BC.p0_s0_t146          BC.dc_flow_146               1  BC.upper_flow_146            1
    BC.p0_s0_t146          BC.lower_flow_146            1
    BC.p0_s0_t147          B_LV.p_balance_147          -1  C_LV.p_balance_147           1
    BC.p0_s0_t147          BC.dc_flow_147               1  BC.upper_flow_147            1
    BC.p0_s0_t147          BC.lower_flow_147            1
    BC.p0_s0_t148          B_LV.p_balance_148          -1  C_LV.p_balance_148           1
    BC.p0_s0_t148          BC.dc_flow_148               1  BC.upper_flow_148            1
    BC.p0_s0_t148          BC.lower_flow_148            1
    BC.p0_s0_t149          B_LV.p_balance_149          -1  C_LV.p_balance_149           1
    BC.p0_s0_t149          BC.dc_flow_149               1  BC.upper_flow_149            1
    BC.p0_s0_t149          BC.lower_flow_149            1
    BC.p0_s0_t150          B_LV.p_balance_150          -1  C_LV.p_balance_150           1
    BC.p0_s0_t150          BC.dc_flow_150               1  BC.upper_flow_150            1
    BC.p0_s0_t150          BC.lower_flow_150            1
    BC.p0_s0_t151          B_LV.p_balance_151          -1  C_LV.p_balance_151           1
    BC.p0_s0_t151          BC.dc_flow_151               1  BC.upper_flow_151            1
    BC.p0_s0_t151          BC.lower_flow_151            1
    BC.p0_s0_t152          B_LV.p_balance_152          -1  C_LV.p_balance_152           1
    BC.p0_s0_t152          BC.dc_flow_152               1  BC.upper_flow_152            1
    BC.p0_s0_t152          BC.lower_flow_152            1
    BC.p0_s0_t153          B_LV.p_balance_153          -1  C_LV.p_balance_153           1
    BC.p0_s0_t153          BC.dc_flow_153               1  BC.upper_flow_153            1
    BC.p0_s0_t153          BC.lower_flow_153            1
    BC.p0_s0_t154          B_LV.p_balance_154          -1  C_LV.p_balance_154           1
    BC.p0_s0_t154          BC.dc_flow_154               1  BC.upper_flow_154            1
    BC.p0_s0_t154          BC.lower_flow_154            1
    BC.p0_s0_t155          B_LV.p_balance_155          -1  C_LV.p_balance_155           1
    BC.p0_s0_t155          BC.dc_flow_155               1  BC.upper_flow_155            1
    BC.p0_s0_t155          BC.lower_flow_155            1
    BC.p0_s0_t156          B_LV.p_balance_156          -1  C_LV.p_balance_156           1
    BC.p0_s0_t156          BC.dc_flow_156               1  BC.upper_flow_156            1
    BC.p0_s0_t156          BC.lower_flow_156            1
    BC.p0_s0_t157          B_LV.p_balance_157          -1  C_LV.p_balance_157           1
    BC.p0_s0_t157          BC.dc_flow_157               1  BC.upper_flow_157            1
    BC.p0_s0_t157          BC.lower_flow_157            1
    BC.p0_s0_t158          B_LV.p_balance_158          -1  C_LV.p_balance_158           1
    BC.p0_s0_t158          BC.dc_flow_158               1  BC.upper_flow_158            1
    BC.p0_s0_t158          BC.lower_flow_158            1
    BC.p0_s0_t159          B_LV.p_balance_159          -1  C_LV.p_balance_159           1
    BC.p0_s0_t159          BC.dc_flow_159               1  BC.upper_flow_159            1
    BC.p0_s0_t159          BC.lower_flow_159            1
    BC.p0_s0_t160          B_LV.p_balance_160          -1  C_LV.p_balance_160           1
    BC.p0_s0_t160          BC.dc_flow_160               1  BC.upper_flow_160            1
    BC.p0_s0_t160          BC.lower_flow_160            1
    BC.p0_s0_t161          B_LV.p_balance_161          -1  C_LV.p_balance_161           1
    BC.p0_s0_t161          BC.dc_flow_161               1  BC.upper_flow_161            1
    BC.p0_s0_t161          BC.lower_flow_161            1
    BC.p0_s0_t162          B_LV.p_balance_162          -1  C_LV.p_balance_162           1
    BC.p0_s0_t162          BC.dc_flow_162               1  BC.upper_flow_162            1
    BC.p0_s0_t162          BC.lower_flow_162            1
    BC.p0_s0_t163          B_LV.p_balance_163          -1  C_LV.p_balance_163           1
    BC.p0_s0_t163          BC.dc_flow_163               1  BC.upper_flow_163            1
    BC.p0_s0_t163          BC.lower_flow_163            1
    BC.p0_s0_t164          B_LV.p_balance_164          -1  C_LV.p_balance_164           1
    BC.p0_s0_t164          BC.dc_flow_164               1  BC.upper_flow_164            1
    BC.p0_s0_t164          BC.lower_flow_164            1
    BC.p0_s0_t165          B_LV.p_balance_165          -1  C_LV.p_balance_165           1
    BC.p0_s0_t165          BC.dc_flow_165               1  BC.upper_flow_165            1
    BC.p0_s0_t165          BC.lower_flow_165            1
    BC.p0_s0_t166          B_LV.p_balance_166          -1  C_LV.p_balance_166           1
    BC.p0_s0_t166          BC.dc_flow_166               1  BC.upper_flow_166            1
    BC.p0_s0_t166          BC.lower_flow_166            1
    BC.p0_s0_t167          B_LV.p_balance_167          -1  C_LV.p_balance_167           1
    BC.p0_s0_t167          BC.dc_flow_167               1  BC.upper_flow_167            1
    BC.p0_s0_t167          BC.lower_flow_167            1
RHS
    RHS                    A_HV.theta_zero_0           -0  A_HV.theta_zero_1           -0
    RHS                    A_HV.theta_zero_2           -0  A_HV.theta_zero_3           -0
    RHS                    A_HV.theta_zero_4           -0  A_HV.theta_zero_5           -0
    RHS                    A_HV.theta_zero_6           -0  A_HV.theta_zero_7           -0
    RHS                    A_HV.theta_zero_8           -0  A_HV.theta_zero_9           -0
    RHS                    A_HV.theta_zero_10          -0  A_HV.theta_zero_11          -0
    RHS                    A_HV.theta_zero_12          -0  A_HV.theta_zero_13          -0
    RHS                    A_HV.theta_zero_14          -0  A_HV.theta_zero_15          -0
    RHS                    A_HV.theta_zero_16          -0  A_HV.theta_zero_17          -0
    RHS                    A_HV.theta_zero_18          -0  A_HV.theta_zero_19          -0
    RHS                    A_HV.theta_zero_20          -0  A_HV.theta_zero_21          -0
    RHS                    A_HV.theta_zero_22          -0  A_HV.theta_zero_23          -0
    RHS                    A_HV.theta_zero_24          -0  A_HV.theta_zero_25          -0
    RHS                    A_HV.theta_zero_26          -0  A_HV.theta_zero_27          -0
    RHS                    A_HV.theta_zero_28          -0  A_HV.theta_zero_29          -0
    RHS                    A_HV.theta_zero_30          -0  A_HV.theta_zero_31          -0
    RHS                    A_HV.theta_zero_32          -0  A_HV.theta_zero_33          -0
    RHS                    A_HV.theta_zero_34          -0  A_HV.theta_zero_35          -0
    RHS                    A_HV.theta_zero_36          -0  A_HV.theta_zero_37          -0
    RHS                    A_HV.theta_zero_38          -0  A_HV.theta_zero_39          -0
    RHS                    A_HV.theta_zero_40          -0  A_HV.theta_zero_41          -0
    RHS                    A_HV.theta_zero_42          -0  A_HV.theta_zero_43          -0
    RHS                    A_HV.theta_zero_44          -0  A_HV.theta_zero_45          -0
    RHS                    A_HV.theta_zero_46          -0  A_HV.theta_zero_47          -0
    RHS                    A_HV.theta_zero_48          -0  A_HV.theta_zero_49          -0
    RHS                    A_HV.theta_zero_50          -0  A_HV.theta_zero_51          -0
    RHS                    A_HV.theta_zero_52          -0  A_HV.theta_zero_53          -0
    RHS                    A_HV.theta_zero_54          -0  A_HV.theta_zero_55          -0
    RHS                    A_HV.theta_zero_56          -0  A_HV.theta_zero_57          -0
    RHS                    A_HV.theta_zero_58          -0  A_HV.theta_zero_59          -0
    RHS                    A_HV.theta_zero_60          -0  A_HV.theta_zero_61          -0
    RHS                    A_HV.theta_zero_62          -0  A_HV.theta_zero_63          -0
    RHS                    A_HV.theta_zero_64          -0  A_HV.theta_zero_65          -0
    RHS                    A_HV.theta_zero_66          -0  A_HV.theta_zero_67          -0
    RHS                    A_HV.theta_zero_68          -0  A_HV.theta_zero_69          -0
    RHS                    A_HV.theta_zero_70          -0  A_HV.theta_zero_71          -0
    RHS                    A_HV.theta_zero_72          -0  A_HV.theta_zero_73          -0
    RHS                    A_HV.theta_zero_74          -0  A_HV.theta_zero_75          -0
    RHS                    A_HV.theta_zero_76          -0  A_HV.theta_zero_77          -0
    RHS                    A_HV.theta_zero_78          -0  A_HV.theta_zero_79          -0
    RHS                    A_HV.theta_zero_80          -0  A_HV.theta_zero_81          -0
    RHS                    A_HV.theta_zero_82          -0  A_HV.theta_zero_83          -0
    RHS                    A_HV.theta_zero_84          -0  A_HV.theta_zero_85          -0
    RHS                    A_HV.theta_zero_86          -0  A_HV.theta_zero_87          -0
    RHS                    A_HV.theta_zero_88          -0  A_HV.theta_zero_89          -0
    RHS                    A_HV.theta_zero_90          -0  A_HV.theta_zero_91          -0
    RHS                    A_HV.theta_zero_92          -0  A_HV.theta_zero_93          -0
    RHS                    A_HV.theta_zero_94          -0  A_HV.theta_zero_95          -0
    RHS                    A_HV.theta_zero_96          -0  A_HV.theta_zero_97          -0
    RHS                    A_HV.theta_zero_98          -0  A_HV.theta_zero_99          -0
    RHS                    A_HV.theta_zero_100         -0  A_HV.theta_zero_101         -0
    RHS                    A_HV.theta_zero_102         -0  A_HV.theta_zero_103         -0
    RHS                    A_HV.theta_zero_104         -0  A_HV.theta_zero_105         -0
    RHS                    A_HV.theta_zero_106         -0  A_HV.theta_zero_107         -0
    RHS                    A_HV.theta_zero_108         -0  A_HV.theta_zero_109         -0
    RHS                    A_HV.theta_zero_110         -0  A_HV.theta_zero_111         -0
    RHS                    A_HV.theta_zero_112         -0  A_HV.theta_zero_113         -0
    RHS                    A_HV.theta_zero_114         -0  A_HV.theta_zero_115         -0
    RHS                    A_HV.theta_zero_116         -0  A_HV.theta_zero_117         -0
    RHS                    A_HV.theta_zero_118         -0  A_HV.theta_zero_119         -0
    RHS                    A_HV.theta_zero_120         -0  A_HV.theta_zero_121         -0
    RHS                    A_HV.theta_zero_122         -0  A_HV.theta_zero_123         -0
    RHS                    A_HV.theta_zero_124         -0  A_HV.theta_zero_125         -0
    RHS                    A_HV.theta_zero_126         -0  A_HV.theta_zero_127         -0
    RHS                    A_HV.theta_zero_128         -0  A_HV.theta_zero_129         -0
    RHS                    A_HV.theta_zero_130         -0  A_HV.theta_zero_131         -0
    RHS                    A_HV.theta_zero_132         -0  A_HV.theta_zero_133         -0
    RHS                    A_HV.theta_zero_134         -0  A_HV.theta_zero_135         -0
    RHS                    A_HV.theta_zero_136         -0  A_HV.theta_zero_137         -0
    RHS                    A_HV.theta_zero_138         -0  A_HV.theta_zero_139         -0
    RHS                    A_HV.theta_zero_140         -0  A_HV.theta_zero_141         -0
    RHS                    A_HV.theta_zero_142         -0  A_HV.theta_zero_143         -0
    RHS                    A_HV.theta_zero_144         -0  A_HV.theta_zero_145         -0
    RHS                    A_HV.theta_zero_146         -0  A_HV.theta_zero_147         -0
    RHS                    A_HV.theta_zero_148         -0  A_HV.theta_zero_149         -0
    RHS                    A_HV.theta_zero_150         -0  A_HV.theta_zero_151         -0
    RHS                    A_HV.theta_zero_152         -0  A_HV.theta_zero_153         -0
    RHS                    A_HV.theta_zero_154         -0  A_HV.theta_zero_155         -0
    RHS                    A_HV.theta_zero_156         -0  A_HV.theta_zero_157         -0
    RHS                    A_HV.theta_zero_158         -0  A_HV.theta_zero_159         -0
    RHS                    A_HV.theta_zero_160         -0  A_HV.theta_zero_161         -0
    RHS                    A_HV.theta_zero_162         -0  A_HV.theta_zero_163         -0
    RHS                    A_HV.theta_zero_164         -0  A_HV.theta_zero_165         -0
    RHS                    A_HV.theta_zero_166         -0  A_HV.theta_zero_167         -0
    RHS                    A_HV.p_balance_0            -0  A_HV.p_balance_1            -0
    RHS                    A_HV.p_balance_2            -0  A_HV.p_balance_3            -0
    RHS                    A_HV.p_balance_4            -0  A_HV.p_balance_5            -0
    RHS                    A_HV.p_balance_6            -0  A_HV.p_balance_7            -0
    RHS                    A_HV.p_balance_8            -0  A_HV.p_balance_9            -0
    RHS                    A_HV.p_balance_10           -0  A_HV.p_balance_11           -0
    RHS                    A_HV.p_balance_12           -0  A_HV.p_balance_13           -0
    RHS                    A_HV.p_balance_14           -0  A_HV.p_balance_15           -0
    RHS                    A_HV.p_balance_16           -0  A_HV.p_balance_17           -0
    RHS                    A_HV.p_balance_18           -0  A_HV.p_balance_19           -0
    RHS                    A_HV.p_balance_20           -0  A_HV.p_balance_21           -0
    RHS                    A_HV.p_balance_22           -0  A_HV.p_balance_23           -0
    RHS                    A_HV.p_balance_24           -0  A_HV.p_balance_25           -0
    RHS                    A_HV.p_balance_26           -0  A_HV.p_balance_27           -0
    RHS                    A_HV.p_balance_28           -0  A_HV.p_balance_29           -0
    RHS                    A_HV.p_balance_30           -0  A_HV.p_balance_31           -0
    RHS                    A_HV.p_balance_32           -0  A_HV.p_balance_33           -0
    RHS                    A_HV.p_balance_34           -0  A_HV.p_balance_35           -0
    RHS                    A_HV.p_balance_36           -0  A_HV.p_balance_37           -0
    RHS                    A_HV.p_balance_38           -0  A_HV.p_balance_39           -0
    RHS                    A_HV.p_balance_40           -0  A_HV.p_balance_41           -0
    RHS                    A_HV.p_balance_42           -0  A_HV.p_balance_43           -0
    RHS                    A_HV.p_balance_44           -0  A_HV.p_balance_45           -0
    RHS                    A_HV.p_balance_46           -0  A_HV.p_balance_47           -0
    RHS                    A_HV.p_balance_48           -0  A_HV.p_balance_49           -0
    RHS                    A_HV.p_balance_50           -0  A_HV.p_balance_51           -0
    RHS                    A_HV.p_balance_52           -0  A_HV.p_balance_53           -0
    RHS                    A_HV.p_balance_54           -0  A_HV.p_balance_55           -0
    RHS                    A_HV.p_balance_56           -0  A_HV.p_balance_57           -0
    RHS                    A_HV.p_balance_58           -0  A_HV.p_balance_59           -0
    RHS                    A_HV.p_balance_60           -0  A_HV.p_balance_61           -0
    RHS                    A_HV.p_balance_62           -0  A_HV.p_balance_63           -0
    RHS                    A_HV.p_balance_64           -0  A_HV.p_balance_65           -0
    RHS                    A_HV.p_balance_66           -0  A_HV.p_balance_67           -0
    RHS                    A_HV.p_balance_68           -0  A_HV.p_balance_69           -0
    RHS                    A_HV.p_balance_70           -0  A_HV.p_balance_71           -0
    RHS                    A_HV.p_balance_72           -0  A_HV.p_balance_73           -0
    RHS                    A_HV.p_balance_74           -0  A_HV.p_balance_75           -0
    RHS                    A_HV.p_balance_76           -0  A_HV.p_balance_77           -0
    RHS                    A_HV.p_balance_78           -0  A_HV.p_balance_79           -0
    RHS                    A_HV.p_balance_80           -0  A_HV.p_balance_81           -0
    RHS                    A_HV.p_balance_82           -0  A_HV.p_balance_83           -0
    RHS                    A_HV.p_balance_84           -0  A_HV.p_balance_85           -0
    RHS                    A_HV.p_balance_86           -0  A_HV.p_balance_87           -0
    RHS                    A_HV.p_balance_88           -0  A_HV.p_balance_89           -0
    RHS                    A_HV.p_balance_90           -0  A_HV.p_balance_91           -0
    RHS                    A_HV.p_balance_92           -0  A_HV.p_balance_93           -0
    RHS                    A_HV.p_balance_94           -0  A_HV.p_balance_95           -0
    RHS                    A_HV.p_balance_96           -0  A_HV.p_balance_97           -0
    RHS                    A_HV.p_balance_98           -0  A_HV.p_balance_99           -0
    RHS                    A_HV.p_balance_100          -0  A_HV.p_balance_101          -0
    RHS                    A_HV.p_balance_102          -0  A_HV.p_balance_103          -0
    RHS                    A_HV.p_balance_104          -0  A_HV.p_balance_105          -0
    RHS                    A_HV.p_balance_106          -0  A_HV.p_balance_107          -0
    RHS                    A_HV.p_balance_108          -0  A_HV.p_balance_109          -0
    RHS                    A_HV.p_balance_110          -0  A_HV.p_balance_111          -0
    RHS                    A_HV.p_balance_112          -0  A_HV.p_balance_113          -0
    RHS                    A_HV.p_balance_114          -0  A_HV.p_balance_115          -0
    RHS                    A_HV.p_balance_116          -0  A_HV.p_balance_117          -0
    RHS                    A_HV.p_balance_118          -0  A_HV.p_balance_119          -0
    RHS                    A_HV.p_balance_120          -0  A_HV.p_balance_121          -0
    RHS                    A_HV.p_balance_122          -0  A_HV.p_balance_123          -0
    RHS                    A_HV.p_balance_124          -0  A_HV.p_balance_125          -0
    RHS                    A_HV.p_balance_126          -0  A_HV.p_balance_127          -0
    RHS                    A_HV.p_balance_128          -0  A_HV.p_balance_129          -0
    RHS                    A_HV.p_balance_130          -0  A_HV.p_balance_131          -0
    RHS                    A_HV.p_balance_132          -0  A_HV.p_balance_133          -0
    RHS                    A_HV.p_balance_134          -0  A_HV.p_balance_135          -0
    RHS                    A_HV.p_balance_136          -0  A_HV.p_balance_137          -0
    RHS                    A_HV.p_balance_138          -0  A_HV.p_balance_139          -0
    RHS                    A_HV.p_balance_140          -0  A_HV.p_balance_141          -0
    RHS                    A_HV.p_balance_142          -0  A_HV.p_balance_143          -0
    RHS                    A_HV.p_balance_144          -0  A_HV.p_balance_145          -0
    RHS                    A_HV.p_balance_146          -0  A_HV.p_balance_147          -0
    RHS                    A_HV.p_balance_148          -0  A_HV.p_balance_149          -0
    RHS                    A_HV.p_balance_150          -0  A_HV.p_balance_151          -0
    RHS                    A_HV.p_balance_152          -0  A_HV.p_balance_153          -0
    RHS                    A_HV.p_balance_154          -0  A_HV.p_balance_155          -0
    RHS                    A_HV.p_balance_156          -0  A_HV.p_balance_157          -0
    RHS                    A_HV.p_balance_158          -0  A_HV.p_balance_159          -0
    RHS                    A_HV.p_balance_160          -0  A_HV.p_balance_161          -0
    RHS                    A_HV.p_balance_162          -0  A_HV.p_balance_163          -0
    RHS                    A_HV.p_balance_164          -0  A_HV.p_balance_165          -0
    RHS                    A_HV.p_balance_166          -0  A_HV.p_balance_167          -0
    RHS                    A_HV.q_balance              -0  B_LV.theta_zero_0           -0
    RHS                    B_LV.theta_zero_1           -0  B_LV.theta_zero_2           -0
    RHS                    B_LV.theta_zero_3           -0  B_LV.theta_zero_4           -0
    RHS                    B_LV.theta_zero_5           -0  B_LV.theta_zero_6           -0
    RHS                    B_LV.theta_zero_7           -0  B_LV.theta_zero_8           -0
    RHS                    B_LV.theta_zero_9           -0  B_LV.theta_zero_10          -0
    RHS                    B_LV.theta_zero_11          -0  B_LV.theta_zero_12          -0
    RHS                    B_LV.theta_zero_13          -0  B_LV.theta_zero_14          -0
    RHS                    B_LV.theta_zero_15          -0  B_LV.theta_zero_16          -0
    RHS                    B_LV.theta_zero_17          -0  B_LV.theta_zero_18          -0
    RHS                    B_LV.theta_zero_19          -0  B_LV.theta_zero_20          -0
    RHS                    B_LV.theta_zero_21          -0  B_LV.theta_zero_22          -0
    RHS                    B_LV.theta_zero_23          -0  B_LV.theta_zero_24          -0
    RHS                    B_LV.theta_zero_25          -0  B_LV.theta_zero_26          -0
    RHS                    B_LV.theta_zero_27          -0  B_LV.theta_zero_28          -0
    RHS                    B_LV.theta_zero_29          -0  B_LV.theta_zero_30          -0
    RHS                    B_LV.theta_zero_31          -0  B_LV.theta_zero_32          -0
    RHS                    B_LV.theta_zero_33          -0  B_LV.theta_zero_34          -0
    RHS                    B_LV.theta_zero_35          -0  B_LV.theta_zero_36          -0
    RHS                    B_LV.theta_zero_37          -0  B_LV.theta_zero_38          -0
    RHS                    B_LV.theta_zero_39          -0  B_LV.theta_zero_40          -0
    RHS                    B_LV.theta_zero_41          -0  B_LV.theta_zero_42          -0
    RHS                    B_LV.theta_zero_43          -0  B_LV.theta_zero_44          -0
    RHS                    B_LV.theta_zero_45          -0  B_LV.theta_zero_46          -0
    RHS                    B_LV.theta_zero_47          -0  B_LV.theta_zero_48          -0
    RHS                    B_LV.theta_zero_49          -0  B_LV.theta_zero_50          -0
    RHS                    B_LV.theta_zero_51          -0  B_LV.theta_zero_52          -0
    RHS                    B_LV.theta_zero_53          -0  B_LV.theta_zero_54          -0
    RHS                    B_LV.theta_zero_55          -0  B_LV.theta_zero_56          -0
    RHS                    B_LV.theta_zero_57          -0  B_LV.theta_zero_58          -0
    RHS                    B_LV.theta_zero_59          -0  B_LV.theta_zero_60          -0
    RHS                    B_LV.theta_zero_61          -0  B_LV.theta_zero_62          -0
    RHS                    B_LV.theta_zero_63          -0  B_LV.theta_zero_64          -0
    RHS                    B_LV.theta_zero_65          -0  B_LV.theta_zero_66          -0
    RHS                    B_LV.theta_zero_67          -0  B_LV.theta_zero_68          -0
    RHS                    B_LV.theta_zero_69          -0  B_LV.theta_zero_70          -0
    RHS                    B_LV.theta_zero_71          -0  B_LV.theta_zero_72          -0
    RHS                    B_LV.theta_zero_73          -0  B_LV.theta_zero_74          -0
    RHS                    B_LV.theta_zero_75          -0  B_LV.theta_zero_76          -0
    RHS                    B_LV.theta_zero_77          -0  B_LV.theta_zero_78          -0
    RHS                    B_LV.theta_zero_79          -0  B_LV.theta_zero_80          -0
    RHS                    B_LV.theta_zero_81          -0  B_LV.theta_zero_82          -0
    RHS                    B_LV.theta_zero_83          -0  B_LV.theta_zero_84          -0
    RHS                    B_LV.theta_zero_85          -0  B_LV.theta_zero_86          -0
    RHS                    B_LV.theta_zero_87          -0  B_LV.theta_zero_88          -0
    RHS                    B_LV.theta_zero_89          -0  B_LV.theta_zero_90          -0
    RHS                    B_LV.theta_zero_91          -0  B_LV.theta_zero_92          -0
    RHS                    B_LV.theta_zero_93          -0  B_LV.theta_zero_94          -0
    RHS                    B_LV.theta_zero_95          -0  B_LV.theta_zero_96          -0
    RHS                    B_LV.theta_zero_97          -0  B_LV.theta_zero_98          -0
    RHS                    B_LV.theta_zero_99          -0  B_LV.theta_zero_100         -0
    RHS                    B_LV.theta_zero_101         -0  B_LV.theta_zero_102         -0
    RHS                    B_LV.theta_zero_103         -0  B_LV.theta_zero_104         -0
    RHS                    B_LV.theta_zero_105         -0  B_LV.theta_zero_106         -0
    RHS                    B_LV.theta_zero_107         -0  B_LV.theta_zero_108         -0
    RHS                    B_LV.theta_zero_109         -0  B_LV.theta_zero_110         -0
    RHS                    B_LV.theta_zero_111         -0  B_LV.theta_zero_112         -0
    RHS                    B_LV.theta_zero_113         -0  B_LV.theta_zero_114         -0
    RHS                    B_LV.theta_zero_115         -0  B_LV.theta_zero_116         -0
    RHS                    B_LV.theta_zero_117         -0  B_LV.theta_zero_118         -0
    RHS                    B_LV.theta_zero_119         -0  B_LV.theta_zero_120         -0
    RHS                    B_LV.theta_zero_121         -0  B_LV.theta_zero_122         -0
    RHS                    B_LV.theta_zero_123         -0  B_LV.theta_zero_124         -0
    RHS                    B_LV.theta_zero_125         -0  B_LV.theta_zero_126         -0
    RHS                    B_LV.theta_zero_127         -0  B_LV.theta_zero_128         -0
    RHS                    B_LV.theta_zero_129         -0  B_LV.theta_zero_130         -0
    RHS                    B_LV.theta_zero_131         -0  B_LV.theta_zero_132         -0
    RHS                    B_LV.theta_zero_133         -0  B_LV.theta_zero_134         -0
    RHS                    B_LV.theta_zero_135         -0  B_LV.theta_zero_136         -0
    RHS                    B_LV.theta_zero_137         -0  B_LV.theta_zero_138         -0
    RHS                    B_LV.theta_zero_139         -0  B_LV.theta_zero_140         -0
    RHS                    B_LV.theta_zero_141         -0  B_LV.theta_zero_142         -0
    RHS                    B_LV.theta_zero_143         -0  B_LV.theta_zero_144         -0
    RHS                    B_LV.theta_zero_145         -0  B_LV.theta_zero_146         -0
    RHS                    B_LV.theta_zero_147         -0  B_LV.theta_zero_148         -0
    RHS                    B_LV.theta_zero_149         -0  B_LV.theta_zero_150         -0
    RHS                    B_LV.theta_zero_151         -0  B_LV.theta_zero_152         -0
    RHS                    B_LV.theta_zero_153         -0  B_LV.theta_zero_154         -0
    RHS                    B_LV.theta_zero_155         -0  B_LV.theta_zero_156         -0
    RHS                    B_LV.theta_zero_157         -0  B_LV.theta_zero_158         -0
    RHS                    B_LV.theta_zero_159         -0  B_LV.theta_zero_160         -0
    RHS                    B_LV.theta_zero_161         -0  B_LV.theta_zero_162         -0
    RHS                    B_LV.theta_zero_163         -0  B_LV.theta_zero_164         -0
    RHS                    B_LV.theta_zero_165         -0  B_LV.theta_zero_166         -0
    RHS                    B_LV.theta_zero_167         -0  B_LV.p_balance_0            25
    RHS                    B_LV.p_balance_1            26  B_LV.p_balance_2            28
    RHS                    B_LV.p_balance_3            32  B_LV.p_balance_4            38
    RHS                    B_LV.p_balance_5            44  B_LV.p_balance_6            50
    RHS                    B_LV.p_balance_7            56  B_LV.p_balance_8            62
    RHS                    B_LV.p_balance_9            68  B_LV.p_balance_10           72
    RHS                    B_LV.p_balance_11           74  B_LV.p_balance_12           75
    RHS                    B_LV.p_balance_13           74  B_LV.p_balance_14           72
    RHS                    B_LV.p_balance_15           68  B_LV.p_balance_16           62
    RHS                    B_LV.p_balance_17           56  B_LV.p_balance_18           50
    RHS                    B_LV.p_balance_19           44  B_LV.p_balance_20           38
    RHS                    B_LV.p_balance_21           32  B_LV.p_balance_22           28
    RHS                    B_LV.p_balance_23           26  B_LV.p_balance_24           25
    RHS                    B_LV.p_balance_25           26  B_LV.p_balance_26           28
    RHS                    B_LV.p_balance_27           32  B_LV.p_balance_28           38
    RHS                    B_LV.p_balance_29           44  B_LV.p_balance_30           50
    RHS                    B_LV.p_balance_31           56  B_LV.p_balance_32           62
    RHS                    B_LV.p_balance_33           68  B_LV.p_balance_34           72
    RHS                    B_LV.p_balance_35           74  B_LV.p_balance_36           75
    RHS                    B_LV.p_balance_37           74  B_LV.p_balance_38           72
    RHS                    B_LV.p_balance_39           68  B_LV.p_balance_40           62
    RHS                    B_LV.p_balance_41           56  B_LV.p_balance_42           50
    RHS                    B_LV.p_balance_43           44  B_LV.p_balance_44           38
    RHS                    B_LV.p_balance_45           32  B_LV.p_balance_46           28
    RHS                    B_LV.p_balance_47           26  B_LV.p_balance_48           25
    RHS                    B_LV.p_balance_49           26  B_LV.p_balance_50           28
    RHS                    B_LV.p_balance_51           32  B_LV.p_balance_52           38
    RHS                    B_LV.p_balance_53           44  B_LV.p_balance_54           50
    RHS                    B_LV.p_balance_55           56  B_LV.p_balance_56           62
    RHS                    B_LV.p_balance_57           68  B_LV.p_balance_58           72
    RHS                    B_LV.p_balance_59           74  B_LV.p_balance_60           75
    RHS                    B_LV.p_balance_61           74  B_LV.p_balance_62           72
    RHS                    B_LV.p_balance_63           68  B_LV.p_balance_64           62
    RHS                    B_LV.p_balance_65           56  B_LV.p_balance_66           50
    RHS                    B_LV.p_balance_67           44  B_LV.p_balance_68           38
    RHS                    B_LV.p_balance_69           32  B_LV.p_balance_70           28
    RHS                    B_LV.p_balance_71           26  B_LV.p_balance_72           25
    RHS                    B_LV.p_balance_73           26  B_LV.p_balance_74           28
    RHS                    B_LV.p_balance_75           32  B_LV.p_balance_76           38
    RHS                    B_LV.p_balance_77           44  B_LV.p_balance_78           50
    RHS                    B_LV.p_balance_79           56  B_LV.p_balance_80           62
    RHS                    B_LV.p_balance_81           68  B_LV.p_balance_82           72
    RHS                    B_LV.p_balance_83           74  B_LV.p_balance_84           75
    RHS                    B_LV.p_balance_85           74  B_LV.p_balance_86           72
    RHS                    B_LV.p_balance_87           68  B_LV.p_balance_88           62
    RHS                    B_LV.p_balance_89           56  B_LV.p_balance_90           50
    RHS                    B_LV.p_balance_91           44  B_LV.p_balance_92           38
    RHS                    B_LV.p_balance_93           32  B_LV.p_balance_94           28
    RHS                    B_LV.p_balance_95           26  B_LV.p_balance_96           25
    RHS                    B_LV.p_balance_97           26  B_LV.p_balance_98           28
    RHS                    B_LV.p_balance_99           32  B_LV.p_balance_100          38
    RHS                    B_LV.p_balance_101          44  B_LV.p_balance_102          50
    RHS                    B_LV.p_balance_103          56  B_LV.p_balance_104          62
    RHS                    B_LV.p_balance_105          68  B_LV.p_balance_106          72
    RHS                    B_LV.p_balance_107          74  B_LV.p_balance_108          75
    RHS                    B_LV.p_balance_109          74  B_LV.p_balance_110          72
    RHS                    B_LV.p_balance_111          68  B_LV.p_balance_112          62
    RHS                    B_LV.p_balance_113          56  B_LV.p_balance_114          50
    RHS                    B_LV.p_balance_115          44  B_LV.p_balance_116          38
    RHS                    B_LV.p_balance_117          32  B_LV.p_balance_118          28
    RHS                    B_LV.p_balance_119          26  B_LV.p_balance_120          15
    RHS                    B_LV.p_balance_121          16  B_LV.p_balance_122          18
    RHS                    B_LV.p_balance_123          22  B_LV.p_balance_124          28
    RHS                    B_LV.p_balance_125          34  B_LV.p_balance_126          40
    RHS                    B_LV.p_balance_127          46  B_LV.p_balance_128          52
    RHS                    B_LV.p_balance_129          58  B_LV.p_balance_130          62
    RHS                    B_LV.p_balance_131          64  B_LV.p_balance_132          65
    RHS                    B_LV.p_balance_133          64  B_LV.p_balance_134          62
    RHS                    B_LV.p_balance_135          58  B_LV.p_balance_136          52
    RHS                    B_LV.p_balance_137          46  B_LV.p_balance_138          40
    RHS                    B_LV.p_balance_139          34  B_LV.p_balance_140          28
    RHS                    B_LV.p_balance_141          22  B_LV.p_balance_142          18
    RHS                    B_LV.p_balance_143          16  B_LV.p_balance_144          15
    RHS                    B_LV.p_balance_145          16  B_LV.p_balance_146          18
    RHS                    B_LV.p_balance_147          22  B_LV.p_balance_148          28
    RHS                    B_LV.p_balance_149          34  B_LV.p_balance_150          40
    RHS                    B_LV.p_balance_151          46  B_LV.p_balance_152          52
    RHS                    B_LV.p_balance_153          58  B_LV.p_balance_154          62
    RHS                    B_LV.p_balance_155          64  B_LV.p_balance_156          65
    RHS                    B_LV.p_balance_157          64  B_LV.p_balance_158          62
    RHS                    B_LV.p_balance_159          58  B_LV.p_balance_160          52
    RHS                    B_LV.p_balance_161          46  B_LV.p_balance_162          40
    RHS                    B_LV.p_balance_163          34  B_LV.p_balance_164          28
    RHS                    B_LV.p_balance_165          22  B_LV.p_balance_166          18
    RHS                    B_LV.p_balance_167          16  B_LV.q_balance              -0
    RHS                    C_LV.theta_zero_0           -0  C_LV.theta_zero_1           -0
    RHS                    C_LV.theta_zero_2           -0  C_LV.theta_zero_3           -0
    RHS                    C_LV.theta_zero_4           -0  C_LV.theta_zero_5           -0
    RHS                    C_LV.theta_zero_6           -0  C_LV.theta_zero_7           -0
    RHS                    C_LV.theta_zero_8           -0  C_LV.theta_zero_9           -0
    RHS                    C_LV.theta_zero_10          -0  C_LV.theta_zero_11          -0
    RHS                    C_LV.theta_zero_12          -0  C_LV.theta_zero_13          -0
    RHS                    C_LV.theta_zero_14          -0  C_LV.theta_zero_15          -0
    RHS                    C_LV.theta_zero_16          -0  C_LV.theta_zero_17          -0
    RHS                    C_LV.theta_zero_18          -0  C_LV.theta_zero_19          -0
    RHS                    C_LV.theta_zero_20          -0  C_LV.theta_zero_21          -0
    RHS                    C_LV.theta_zero_22          -0  C_LV.theta_zero_23          -0
    RHS                    C_LV.theta_zero_24          -0  C_LV.theta_zero_25          -0
    RHS                    C_LV.theta_zero_26          -0  C_LV.theta_zero_27          -0
    RHS                    C_LV.theta_zero_28          -0  C_LV.theta_zero_29          -0
    RHS                    C_LV.theta_zero_30          -0  C_LV.theta_zero_31          -0
    RHS                    C_LV.theta_zero_32          -0  C_LV.theta_zero_33          -0
    RHS                    C_LV.theta_zero_34          -0  C_LV.theta_zero_35          -0
    RHS                    C_LV.theta_zero_36          -0  C_LV.theta_zero_37          -0
    RHS                    C_LV.theta_zero_38          -0  C_LV.theta_zero_39          -0
    RHS                    C_LV.theta_zero_40          -0  C_LV.theta_zero_41          -0
    RHS                    C_LV.theta_zero_42          -0  C_LV.theta_zero_43          -0
    RHS                    C_LV.theta_zero_44          -0  C_LV.theta_zero_45          -0
    RHS                    C_LV.theta_zero_46          -0  C_LV.theta_zero_47          -0
    RHS                    C_LV.theta_zero_48          -0  C_LV.theta_zero_49          -0
    RHS                    C_LV.theta_zero_50          -0  C_LV.theta_zero_51          -0
    RHS                    C_LV.theta_zero_52          -0  C_LV.theta_zero_53          -0
    RHS                    C_LV.theta_zero_54          -0  C_LV.theta_zero_55          -0
    RHS                    C_LV.theta_zero_56          -0  C_LV.theta_zero_57          -0
    RHS                    C_LV.theta_zero_58          -0  C_LV.theta_zero_59          -0
    RHS                    C_LV.theta_zero_60          -0  C_LV.theta_zero_61          -0
    RHS                    C_LV.theta_zero_62          -0  C_LV.theta_zero_63          -0
    RHS                    C_LV.theta_zero_64          -0  C_LV.theta_zero_65          -0
    RHS                    C_LV.theta_zero_66          -0  C_LV.theta_zero_67          -0
    RHS                    C_LV.theta_zero_68          -0  C_LV.theta_zero_69          -0
    RHS                    C_LV.theta_zero_70          -0  C_LV.theta_zero_71          -0
    RHS                    C_LV.theta_zero_72          -0  C_LV.theta_zero_73          -0
    RHS                    C_LV.theta_zero_74          -0  C_LV.theta_zero_75          -0
    RHS                    C_LV.theta_zero_76          -0  C_LV.theta_zero_77          -0
    RHS                    C_LV.theta_zero_78          -0  C_LV.theta_zero_79          -0
    RHS                    C_LV.theta_zero_80          -0  C_LV.theta_zero_81          -0
    RHS                    C_LV.theta_zero_82          -0  C_LV.theta_zero_83          -0
    RHS                    C_LV.theta_zero_84          -0  C_LV.theta_zero_85          -0
    RHS                    C_LV.theta_zero_86          -0  C_LV.theta_zero_87          -0
    RHS                    C_LV.theta_zero_88          -0  C_LV.theta_zero_89          -0
    RHS                    C_LV.theta_zero_90          -0  C_LV.theta_zero_91          -0
    RHS                    C_LV.theta_zero_92          -0  C_LV.theta_zero_93          -0
    RHS                    C_LV.theta_zero_94          -0  C_LV.theta_zero_95          -0
    RHS                    C_LV.theta_zero_96          -0  C_LV.theta_zero_97          -0
    RHS                    C_LV.theta_zero_98          -0  C_LV.theta_zero_99          -0
    RHS                    C_LV.theta_zero_100         -0  C_LV.theta_zero_101         -0
    RHS                    C_LV.theta_zero_102         -0  C_LV.theta_zero_103         -0
    RHS                    C_LV.theta_zero_104         -0  C_LV.theta_zero_105         -0
    RHS                    C_LV.theta_zero_106         -0  C_LV.theta_zero_107         -0
    RHS                    C_LV.theta_zero_108         -0  C_LV.theta_zero_109         -0
    RHS                    C_LV.theta_zero_110         -0  C_LV.theta_zero_111         -0
    RHS                    C_LV.theta_zero_112         -0  C_LV.theta_zero_113         -0
    RHS                    C_LV.theta_zero_114         -0  C_LV.theta_zero_115         -0
    RHS                    C_LV.theta_zero_116         -0  C_LV.theta_zero_117         -0
    RHS                    C_LV.theta_zero_118         -0  C_LV.theta_zero_119         -0
    RHS                    C_LV.theta_zero_120         -0  C_LV.theta_zero_121         -0
    RHS                    C_LV.theta_zero_122         -0  C_LV.theta_zero_123         -0
    RHS                    C_LV.theta_zero_124         -0  C_LV.theta_zero_125         -0
    RHS                    C_LV.theta_zero_126         -0  C_LV.theta_zero_127         -0
    RHS                    C_LV.theta_zero_128         -0  C_LV.theta_zero_129         -0
    RHS                    C_LV.theta_zero_130         -0  C_LV.theta_zero_131         -0
    RHS                    C_LV.theta_zero_132         -0  C_LV.theta_zero_133         -0
    RHS                    C_LV.theta_zero_134         -0  C_LV.theta_zero_135         -0
    RHS                    C_LV.theta_zero_136         -0  C_LV.theta_zero_137         -0
    RHS                    C_LV.theta_zero_138         -0  C_LV.theta_zero_139         -0
    RHS                    C_LV.theta_zero_140         -0  C_LV.theta_zero_141         -0
    RHS                    C_LV.theta_zero_142         -0  C_LV.theta_zero_143         -0
    RHS                    C_LV.theta_zero_144         -0  C_LV.theta_zero_145         -0
    RHS                    C_LV.theta_zero_146         -0  C_LV.theta_zero_147         -0
    RHS                    C_LV.theta_zero_148         -0  C_LV.theta_zero_149         -0
    RHS                    C_LV.theta_zero_150         -0  C_LV.theta_zero_151         -0
    RHS                    C_LV.theta_zero_152         -0  C_LV.theta_zero_153         -0
    RHS                    C_LV.theta_zero_154         -0  C_LV.theta_zero_155         -0
    RHS                    C_LV.theta_zero_156         -0  C_LV.theta_zero_157         -0
    RHS                    C_LV.theta_zero_158         -0  C_LV.theta_zero_159         -0
    RHS                    C_LV.theta_zero_160         -0  C_LV.theta_zero_161         -0
    RHS                    C_LV.theta_zero_162         -0  C_LV.theta_zero_163         -0
    RHS                    C_LV.theta_zero_164         -0  C_LV.theta_zero_165         -0
    RHS                    C_LV.theta_zero_166         -0  C_LV.theta_zero_167         -0
    RHS                    C_LV.p_balance_0            25  C_LV.p_balance_1            26
    RHS                    C_LV.p_balance_2            28  C_LV.p_balance_3            32
    RHS                    C_LV.p_balance_4            38  C_LV.p_balance_5            44
    RHS                    C_LV.p_balance_6            50  C_LV.p_balance_7            56
    RHS                    C_LV.p_balance_8            62  C_LV.p_balance_9            68
    RHS                    C_LV.p_balance_10           72  C_LV.p_balance_11           74
    RHS                    C_LV.p_balance_12           75  C_LV.p_balance_13           74
    RHS                    C_LV.p_balance_14           72  C_LV.p_balance_15           68
    RHS                    C_LV.p_balance_16           62  C_LV.p_balance_17           56
    RHS                    C_LV.p_balance_18           50  C_LV.p_balance_19           44
    RHS                    C_LV.p_balance_20           38  C_LV.p_balance_21           32
    RHS                    C_LV.p_balance_22           28  C_LV.p_balance_23           26
    RHS                    C_LV.p_balance_24           25  C_LV.p_balance_25           26
    RHS                    C_LV.p_balance_26           28  C_LV.p_balance_27           32
    RHS                    C_LV.p_balance_28           38  C_LV.p_balance_29           44
    RHS                    C_LV.p_balance_30           50  C_LV.p_balance_31           56
    RHS                    C_LV.p_balance_32           62  C_LV.p_balance_33           68
    RHS                    C_LV.p_balance_34           72  C_LV.p_balance_35           74
    RHS                    C_LV.p_balance_36           75  C_LV.p_balance_37           74
    RHS                    C_LV.p_balance_38           72  C_LV.p_balance_39           68
    RHS                    C_LV.p_balance_40           62  C_LV.p_balance_41           56
    RHS                    C_LV.p_balance_42           50  C_LV.p_balance_43           44
    RHS                    C_LV.p_balance_44           38  C_LV.p_balance_45           32
    RHS                    C_LV.p_balance_46           28  C_LV.p_balance_47           26
    RHS                    C_LV.p_balance_48           25  C_LV.p_balance_49           26
    RHS                    C_LV.p_balance_50           28  C_LV.p_balance_51           32
    RHS                    C_LV.p_balance_52           38  C_LV.p_balance_53           44
    RHS                    C_LV.p_balance_54           50  C_LV.p_balance_55           56
    RHS                    C_LV.p_balance_56           62  C_LV.p_balance_57           68
    RHS                    C_LV.p_balance_58           72  C_LV.p_balance_59           74
    RHS                    C_LV.p_balance_60           75  C_LV.p_balance_61           74
    RHS                    C_LV.p_balance_62           72  C_LV.p_balance_63           68
    RHS                    C_LV.p_balance_64           62  C_LV.p_balance_65           56
    RHS                    C_LV.p_balance_66           50  C_LV.p_balance_67           44
    RHS                    C_LV.p_balance_68           38  C_LV.p_balance_69           32
    RHS                    C_LV.p_balance_70           28  C_LV.p_balance_71           26
    RHS                    C_LV.p_balance_72           25  C_LV.p_balance_73           26
    RHS                    C_LV.p_balance_74           28  C_LV.p_balance_75           32
    RHS                    C_LV.p_balance_76           38  C_LV.p_balance_77           44
    RHS                    C_LV.p_balance_78           50  C_LV.p_balance_79           56
    RHS                    C_LV.p_balance_80           62  C_LV.p_balance_81           68
    RHS                    C_LV.p_balance_82           72  C_LV.p_balance_83           74
    RHS                    C_LV.p_balance_84           75  C_LV.p_balance_85           74
    RHS                    C_LV.p_balance_86           72  C_LV.p_balance_87           68
    RHS                    C_LV.p_balance_88           62  C_LV.p_balance_89           56
    RHS                    C_LV.p_balance_90           50  C_LV.p_balance_91           44
    RHS                    C_LV.p_balance_92           38  C_LV.p_balance_93           32
    RHS                    C_LV.p_balance_94           28  C_LV.p_balance_95           26
    RHS                    C_LV.p_balance_96           25  C_LV.p_balance_97           26
    RHS                    C_LV.p_balance_98           28  C_LV.p_balance_99           32
    RHS                    C_LV.p_balance_100          38  C_LV.p_balance_101          44
    RHS                    C_LV.p_balance_102          50  C_LV.p_balance_103          56
    RHS                    C_LV.p_balance_104          62  C_LV.p_balance_105          68
    RHS                    C_LV.p_balance_106          72  C_LV.p_balance_107          74
    RHS                    C_LV.p_balance_108          75  C_LV.p_balance_109          74
    RHS                    C_LV.p_balance_110          72  C_LV.p_balance_111          68
    RHS                    C_LV.p_balance_112          62  C_LV.p_balance_113          56
    RHS                    C_LV.p_balance_114          50  C_LV.p_balance_115          44
    RHS                    C_LV.p_balance_116          38  C_LV.p_balance_117          32
    RHS                    C_LV.p_balance_118          28  C_LV.p_balance_119          26
    RHS                    C_LV.p_balance_120          15  C_LV.p_balance_121          16
    RHS                    C_LV.p_balance_122          18  C_LV.p_balance_123          22
    RHS                    C_LV.p_balance_124          28  C_LV.p_balance_125          34
    RHS                    C_LV.p_balance_126          40  C_LV.p_balance_127          46
    RHS                    C_LV.p_balance_128          52  C_LV.p_balance_129          58
    RHS                    C_LV.p_balance_130          62  C_LV.p_balance_131          64
    RHS                    C_LV.p_balance_132          65  C_LV.p_balance_133          64
    RHS                    C_LV.p_balance_134          62  C_LV.p_balance_135          58
    RHS                    C_LV.p_balance_136          52  C_LV.p_balance_137          46
    RHS                    C_LV.p_balance_138          40  C_LV.p_balance_139          34
    RHS                    C_LV.p_balance_140          28  C_LV.p_balance_141          22
    RHS                    C_LV.p_balance_142          18  C_LV.p_balance_143          16
    RHS                    C_LV.p_balance_144          15  C_LV.p_balance_145          16
    RHS                    C_LV.p_balance_146          18  C_LV.p_balance_147          22
    RHS                    C_LV.p_balance_148          28  C_LV.p_balance_149          34
    RHS                    C_LV.p_balance_150          40  C_LV.p_balance_151          46
    RHS                    C_LV.p_balance_152          52  C_LV.p_balance_153          58
    RHS                    C_LV.p_balance_154          62  C_LV.p_balance_155          64
    RHS                    C_LV.p_balance_156          65  C_LV.p_balance_157          64
    RHS                    C_LV.p_balance_158          62  C_LV.p_balance_159          58
    RHS                    C_LV.p_balance_160          52  C_LV.p_balance_161          46
    RHS                    C_LV.p_balance_162          40  C_LV.p_balance_163          34
    RHS                    C_LV.p_balance_164          28  C_LV.p_balance_165          22
    RHS                    C_LV.p_balance_166          18  C_LV.p_balance_167          16
    RHS                    C_LV.q_balance              -0  REF_A.theta_reference       -0
    RHS                    G_A.min_dispatch_0          -0  G_A.min_dispatch_1          -0
    RHS                    G_A.min_dispatch_2          -0  G_A.min_dispatch_3          -0
    RHS                    G_A.min_dispatch_4          -0  G_A.min_dispatch_5          -0
    RHS                    G_A.min_dispatch_6          -0  G_A.min_dispatch_7          -0
    RHS                    G_A.min_dispatch_8          -0  G_A.min_dispatch_9          -0
    RHS                    G_A.min_dispatch_10         -0  G_A.min_dispatch_11         -0
    RHS                    G_A.min_dispatch_12         -0  G_A.min_dispatch_13         -0
    RHS                    G_A.min_dispatch_14         -0  G_A.min_dispatch_15         -0
    RHS                    G_A.min_dispatch_16         -0  G_A.min_dispatch_17         -0
    RHS                    G_A.min_dispatch_18         -0  G_A.min_dispatch_19         -0
    RHS                    G_A.min_dispatch_20         -0  G_A.min_dispatch_21         -0
    RHS                    G_A.min_dispatch_22         -0  G_A.min_dispatch_23         -0
    RHS                    G_A.min_dispatch_24         -0  G_A.min_dispatch_25         -0
    RHS                    G_A.min_dispatch_26         -0  G_A.min_dispatch_27         -0
    RHS                    G_A.min_dispatch_28         -0  G_A.min_dispatch_29         -0
    RHS                    G_A.min_dispatch_30         -0  G_A.min_dispatch_31         -0
    RHS                    G_A.min_dispatch_32         -0  G_A.min_dispatch_33         -0
    RHS                    G_A.min_dispatch_34         -0  G_A.min_dispatch_35         -0
    RHS                    G_A.min_dispatch_36         -0  G_A.min_dispatch_37         -0
    RHS                    G_A.min_dispatch_38         -0  G_A.min_dispatch_39         -0
    RHS                    G_A.min_dispatch_40         -0  G_A.min_dispatch_41         -0
    RHS                    G_A.min_dispatch_42         -0  G_A.min_dispatch_43         -0
    RHS                    G_A.min_dispatch_44         -0  G_A.min_dispatch_45         -0
    RHS                    G_A.min_dispatch_46         -0  G_A.min_dispatch_47         -0
    RHS                    G_A.min_dispatch_48         -0  G_A.min_dispatch_49         -0
    RHS                    G_A.min_dispatch_50         -0  G_A.min_dispatch_51         -0
    RHS                    G_A.min_dispatch_52         -0  G_A.min_dispatch_53         -0
    RHS                    G_A.min_dispatch_54         -0  G_A.min_dispatch_55         -0
    RHS                    G_A.min_dispatch_56         -0  G_A.min_dispatch_57         -0
    RHS                    G_A.min_dispatch_58         -0  G_A.min_dispatch_59         -0
    RHS                    G_A.min_dispatch_60         -0  G_A.min_dispatch_61         -0
    RHS                    G_A.min_dispatch_62         -0  G_A.min_dispatch_63         -0
    RHS                    G_A.min_dispatch_64         -0  G_A.min_dispatch_65         -0
    RHS                    G_A.min_dispatch_66         -0  G_A.min_dispatch_67         -0
    RHS                    G_A.min_dispatch_68         -0  G_A.min_dispatch_69         -0
    RHS                    G_A.min_dispatch_70         -0  G_A.min_dispatch_71         -0
    RHS                    G_A.min_dispatch_72         -0  G_A.min_dispatch_73         -0
    RHS                    G_A.min_dispatch_74         -0  G_A.min_dispatch_75         -0
    RHS                    G_A.min_dispatch_76         -0  G_A.min_dispatch_77         -0
    RHS                    G_A.min_dispatch_78         -0  G_A.min_dispatch_79         -0
    RHS                    G_A.min_dispatch_80         -0  G_A.min_dispatch_81         -0
    RHS                    G_A.min_dispatch_82         -0  G_A.min_dispatch_83         -0
    RHS                    G_A.min_dispatch_84         -0  G_A.min_dispatch_85         -0
    RHS                    G_A.min_dispatch_86         -0  G_A.min_dispatch_87         -0
    RHS                    G_A.min_dispatch_88         -0  G_A.min_dispatch_89         -0
    RHS                    G_A.min_dispatch_90         -0  G_A.min_dispatch_91         -0
    RHS                    G_A.min_dispatch_92         -0  G_A.min_dispatch_93         -0
    RHS                    G_A.min_dispatch_94         -0  G_A.min_dispatch_95         -0
    RHS                    G_A.min_dispatch_96         -0  G_A.min_dispatch_97         -0
    RHS                    G_A.min_dispatch_98         -0  G_A.min_dispatch_99         -0
    RHS                    G_A.min_dispatch_100        -0  G_A.min_dispatch_101        -0
    RHS                    G_A.min_dispatch_102        -0  G_A.min_dispatch_103        -0
    RHS                    G_A.min_dispatch_104        -0  G_A.min_dispatch_105        -0
    RHS                    G_A.min_dispatch_106        -0  G_A.min_dispatch_107        -0
    RHS                    G_A.min_dispatch_108        -0  G_A.min_dispatch_109        -0
    RHS                    G_A.min_dispatch_110        -0  G_A.min_dispatch_111        -0
    RHS                    G_A.min_dispatch_112        -0  G_A.min_dispatch_113        -0
    RHS                    G_A.min_dispatch_114        -0  G_A.min_dispatch_115        -0
    RHS                    G_A.min_dispatch_116        -0  G_A.min_dispatch_117        -0
    RHS                    G_A.min_dispatch_118        -0  G_A.min_dispatch_119        -0
    RHS                    G_A.min_dispatch_120        -0  G_A.min_dispatch_121        -0
    RHS                    G_A.min_dispatch_122        -0  G_A.min_dispatch_123        -0
    RHS                    G_A.min_dispatch_124        -0  G_A.min_dispatch_125        -0
    RHS                    G_A.min_dispatch_126        -0  G_A.min_dispatch_127        -0
    RHS                    G_A.min_dispatch_128        -0  G_A.min_dispatch_129        -0
    RHS                    G_A.min_dispatch_130        -0  G_A.min_dispatch_131        -0
    RHS                    G_A.min_dispatch_132        -0  G_A.min_dispatch_133        -0
    RHS                    G_A.min_dispatch_134        -0  G_A.min_dispatch_135        -0
    RHS                    G_A.min_dispatch_136        -0  G_A.min_dispatch_137        -0
    RHS                    G_A.min_dispatch_138        -0  G_A.min_dispatch_139        -0
    RHS                    G_A.min_dispatch_140        -0  G_A.min_dispatch_141        -0
    RHS                    G_A.min_dispatch_142        -0  G_A.min_dispatch_143        -0
    RHS                    G_A.min_dispatch_144        -0  G_A.min_dispatch_145        -0
    RHS                    G_A.min_dispatch_146        -0  G_A.min_dispatch_147        -0
    RHS                    G_A.min_dispatch_148        -0  G_A.min_dispatch_149        -0
    RHS                    G_A.min_dispatch_150        -0  G_A.min_dispatch_151        -0
    RHS                    G_A.min_dispatch_152        -0  G_A.min_dispatch_153        -0
    RHS                    G_A.min_dispatch_154        -0  G_A.min_dispatch_155        -0
    RHS                    G_A.min_dispatch_156        -0  G_A.min_dispatch_157        -0
    RHS                    G_A.min_dispatch_158        -0  G_A.min_dispatch_159        -0
    RHS                    G_A.min_dispatch_160        -0  G_A.min_dispatch_161        -0
    RHS                    G_A.min_dispatch_162        -0  G_A.min_dispatch_163        -0
    RHS                    G_A.min_dispatch_164        -0  G_A.min_dispatch_165        -0
    RHS                    G_A.min_dispatch_166        -0  G_A.min_dispatch_167        -0
    RHS                    G_A.max_dispatch_0          -0  G_A.max_dispatch_1          -0
    RHS                    G_A.max_dispatch_2          -0  G_A.max_dispatch_3          -0
    RHS                    G_A.max_dispatch_4          -0  G_A.max_dispatch_5          -0
    RHS                    G_A.max_dispatch_6          -0  G_A.max_dispatch_7          -0
    RHS                    G_A.max_dispatch_8          -0  G_A.max_dispatch_9          -0
    RHS                    G_A.max_dispatch_10         -0  G_A.max_dispatch_11         -0
    RHS                    G_A.max_dispatch_12         -0  G_A.max_dispatch_13         -0
    RHS                    G_A.max_dispatch_14         -0  G_A.max_dispatch_15         -0
    RHS                    G_A.max_dispatch_16         -0  G_A.max_dispatch_17         -0
    RHS                    G_A.max_dispatch_18         -0  G_A.max_dispatch_19         -0
    RHS                    G_A.max_dispatch_20         -0  G_A.max_dispatch_21         -0
    RHS                    G_A.max_dispatch_22         -0  G_A.max_dispatch_23         -0
    RHS                    G_A.max_dispatch_24         -0  G_A.max_dispatch_25         -0
    RHS                    G_A.max_dispatch_26         -0  G_A.max_dispatch_27         -0
    RHS                    G_A.max_dispatch_28         -0  G_A.max_dispatch_29         -0
    RHS                    G_A.max_dispatch_30         -0  G_A.max_dispatch_31         -0
    RHS                    G_A.max_dispatch_32         -0  G_A.max_dispatch_33         -0
    RHS                    G_A.max_dispatch_34         -0  G_A.max_dispatch_35         -0
    RHS                    G_A.max_dispatch_36         -0  G_A.max_dispatch_37         -0
    RHS                    G_A.max_dispatch_38         -0  G_A.max_dispatch_39         -0
    RHS                    G_A.max_dispatch_40         -0  G_A.max_dispatch_41         -0
    RHS                    G_A.max_dispatch_42         -0  G_A.max_dispatch_43         -0
    RHS                    G_A.max_dispatch_44         -0  G_A.max_dispatch_45         -0
    RHS                    G_A.max_dispatch_46         -0  G_A.max_dispatch_47         -0
    RHS                    G_A.max_dispatch_48         -0  G_A.max_dispatch_49         -0
    RHS                    G_A.max_dispatch_50         -0  G_A.max_dispatch_51         -0
    RHS                    G_A.max_dispatch_52         -0  G_A.max_dispatch_53         -0
    RHS                    G_A.max_dispatch_54         -0  G_A.max_dispatch_55         -0
    RHS                    G_A.max_dispatch_56         -0  G_A.max_dispatch_57         -0
    RHS                    G_A.max_dispatch_58         -0  G_A.max_dispatch_59         -0
    RHS                    G_A.max_dispatch_60         -0  G_A.max_dispatch_61         -0
    RHS                    G_A.max_dispatch_62         -0  G_A.max_dispatch_63         -0
    RHS                    G_A.max_dispatch_64         -0  G_A.max_dispatch_65         -0
    RHS                    G_A.max_dispatch_66         -0  G_A.max_dispatch_67         -0
    RHS                    G_A.max_dispatch_68         -0  G_A.max_dispatch_69         -0
    RHS                    G_A.max_dispatch_70         -0  G_A.max_dispatch_71         -0
    RHS                    G_A.max_dispatch_72         -0  G_A.max_dispatch_73         -0
    RHS                    G_A.max_dispatch_74         -0  G_A.max_dispatch_75         -0
    RHS                    G_A.max_dispatch_76         -0  G_A.max_dispatch_77         -0
    RHS                    G_A.max_dispatch_78         -0  G_A.max_dispatch_79         -0
    RHS                    G_A.max_dispatch_80         -0  G_A.max_dispatch_81         -0
    RHS                    G_A.max_dispatch_82         -0  G_A.max_dispatch_83         -0
    RHS                    G_A.max_dispatch_84         -0  G_A.max_dispatch_85         -0
    RHS                    G_A.max_dispatch_86         -0  G_A.max_dispatch_87         -0
    RHS                    G_A.max_dispatch_88         -0  G_A.max_dispatch_89         -0
    RHS                    G_A.max_dispatch_90         -0  G_A.max_dispatch_91         -0
    RHS                    G_A.max_dispatch_92         -0  G_A.max_dispatch_93         -0
    RHS                    G_A.max_dispatch_94         -0  G_A.max_dispatch_95         -0
    RHS                    G_A.max_dispatch_96         -0  G_A.max_dispatch_97         -0
    RHS                    G_A.max_dispatch_98         -0  G_A.max_dispatch_99         -0
    RHS                    G_A.max_dispatch_100        -0  G_A.max_dispatch_101        -0
    RHS                    G_A.max_dispatch_102        -0  G_A.max_dispatch_103        -0
    RHS                    G_A.max_dispatch_104        -0  G_A.max_dispatch_105        -0
    RHS                    G_A.max_dispatch_106        -0  G_A.max_dispatch_107        -0
    RHS                    G_A.max_dispatch_108        -0  G_A.max_dispatch_109        -0
    RHS                    G_A.max_dispatch_110        -0  G_A.max_dispatch_111        -0
    RHS                    G_A.max_dispatch_112        -0  G_A.max_dispatch_113        -0
    RHS                    G_A.max_dispatch_114        -0  G_A.max_dispatch_115        -0
    RHS                    G_A.max_dispatch_116        -0  G_A.max_dispatch_117        -0
    RHS                    G_A.max_dispatch_118        -0  G_A.max_dispatch_119        -0
    RHS                    G_A.max_dispatch_120        -0  G_A.max_dispatch_121        -0
    RHS                    G_A.max_dispatch_122        -0  G_A.max_dispatch_123        -0
    RHS                    G_A.max_dispatch_124        -0  G_A.max_dispatch_125        -0
    RHS                    G_A.max_dispatch_126        -0  G_A.max_dispatch_127        -0
    RHS                    G_A.max_dispatch_128        -0  G_A.max_dispatch_129        -0
    RHS                    G_A.max_dispatch_130        -0  G_A.max_dispatch_131        -0
    RHS                    G_A.max_dispatch_132        -0  G_A.max_dispatch_133        -0
    RHS                    G_A.max_dispatch_134        -0  G_A.max_dispatch_135        -0
    RHS                    G_A.max_dispatch_136        -0  G_A.max_dispatch_137        -0
    RHS                    G_A.max_dispatch_138        -0  G_A.max_dispatch_139        -0
    RHS                    G_A.max_dispatch_140        -0  G_A.max_dispatch_141        -0
    RHS                    G_A.max_dispatch_142        -0  G_A.max_dispatch_143        -0
    RHS                    G_A.max_dispatch_144        -0  G_A.max_dispatch_145        -0
    RHS                    G_A.max_dispatch_146        -0  G_A.max_dispatch_147        -0
    RHS                    G_A.max_dispatch_148        -0  G_A.max_dispatch_149        -0
    RHS                    G_A.max_dispatch_150        -0  G_A.max_dispatch_151        -0
    RHS                    G_A.max_dispatch_152        -0  G_A.max_dispatch_153        -0
    RHS                    G_A.max_dispatch_154        -0  G_A.max_dispatch_155        -0
    RHS                    G_A.max_dispatch_156        -0  G_A.max_dispatch_157        -0
    RHS                    G_A.max_dispatch_158        -0  G_A.max_dispatch_159        -0
    RHS                    G_A.max_dispatch_160        -0  G_A.max_dispatch_161        -0
    RHS                    G_A.max_dispatch_162        -0  G_A.max_dispatch_163        -0
    RHS                    G_A.max_dispatch_164        -0  G_A.max_dispatch_165        -0
    RHS                    G_A.max_dispatch_166        -0  G_A.max_dispatch_167        -0
    RHS                    G_A.min_production      -1e+10  G_A.max_production       1e+10
    RHS                    G_C.min_dispatch_0          -0  G_C.min_dispatch_1          -0
    RHS                    G_C.min_dispatch_2          -0  G_C.min_dispatch_3          -0
    RHS                    G_C.min_dispatch_4          -0  G_C.min_dispatch_5          -0
    RHS                    G_C.min_dispatch_6          -0  G_C.min_dispatch_7          -0
    RHS                    G_C.min_dispatch_8          -0  G_C.min_dispatch_9          -0
    RHS                    G_C.min_dispatch_10         -0  G_C.min_dispatch_11         -0
    RHS                    G_C.min_dispatch_12         -0  G_C.min_dispatch_13         -0
    RHS                    G_C.min_dispatch_14         -0  G_C.min_dispatch_15         -0
    RHS                    G_C.min_dispatch_16         -0  G_C.min_dispatch_17         -0
    RHS                    G_C.min_dispatch_18         -0  G_C.min_dispatch_19         -0
    RHS                    G_C.min_dispatch_20         -0  G_C.min_dispatch_21         -0
    RHS                    G_C.min_dispatch_22         -0  G_C.min_dispatch_23         -0
    RHS                    G_C.min_dispatch_24         -0  G_C.min_dispatch_25         -0
    RHS                    G_C.min_dispatch_26         -0  G_C.min_dispatch_27         -0
    RHS                    G_C.min_dispatch_28         -0  G_C.min_dispatch_29         -0
    RHS                    G_C.min_dispatch_30         -0  G_C.min_dispatch_31         -0
    RHS                    G_C.min_dispatch_32         -0  G_C.min_dispatch_33         -0
    RHS                    G_C.min_dispatch_34         -0  G_C.min_dispatch_35         -0
    RHS                    G_C.min_dispatch_36         -0  G_C.min_dispatch_37         -0
    RHS                    G_C.min_dispatch_38         -0  G_C.min_dispatch_39         -0
    RHS                    G_C.min_dispatch_40         -0  G_C.min_dispatch_41         -0
    RHS                    G_C.min_dispatch_42         -0  G_C.min_dispatch_43         -0
    RHS                    G_C.min_dispatch_44         -0  G_C.min_dispatch_45         -0
    RHS                    G_C.min_dispatch_46         -0  G_C.min_dispatch_47         -0
    RHS                    G_C.min_dispatch_48         -0  G_C.min_dispatch_49         -0
    RHS                    G_C.min_dispatch_50         -0  G_C.min_dispatch_51         -0
    RHS                    G_C.min_dispatch_52         -0  G_C.min_dispatch_53         -0
    RHS                    G_C.min_dispatch_54         -0  G_C.min_dispatch_55         -0
    RHS                    G_C.min_dispatch_56         -0  G_C.min_dispatch_57         -0
    RHS                    G_C.min_dispatch_58         -0  G_C.min_dispatch_59         -0
    RHS                    G_C.min_dispatch_60         -0  G_C.min_dispatch_61         -0
    RHS                    G_C.min_dispatch_62         -0  G_C.min_dispatch_63         -0
    RHS                    G_C.min_dispatch_64         -0  G_C.min_dispatch_65         -0
    RHS                    G_C.min_dispatch_66         -0  G_C.min_dispatch_67         -0
    RHS                    G_C.min_dispatch_68         -0  G_C.min_dispatch_69         -0
    RHS                    G_C.min_dispatch_70         -0  G_C.min_dispatch_71         -0
    RHS                    G_C.min_dispatch_72         -0  G_C.min_dispatch_73         -0
    RHS                    G_C.min_dispatch_74         -0  G_C.min_dispatch_75         -0
    RHS                    G_C.min_dispatch_76         -0  G_C.min_dispatch_77         -0
    RHS                    G_C.min_dispatch_78         -0  G_C.min_dispatch_79         -0
    RHS                    G_C.min_dispatch_80         -0  G_C.min_dispatch_81         -0
    RHS                    G_C.min_dispatch_82         -0  G_C.min_dispatch_83         -0
    RHS                    G_C.min_dispatch_84         -0  G_C.min_dispatch_85         -0
    RHS                    G_C.min_dispatch_86         -0  G_C.min_dispatch_87         -0
    RHS                    G_C.min_dispatch_88         -0  G_C.min_dispatch_89         -0
    RHS                    G_C.min_dispatch_90         -0  G_C.min_dispatch_91         -0
    RHS                    G_C.min_dispatch_92         -0  G_C.min_dispatch_93         -0
    RHS                    G_C.min_dispatch_94         -0  G_C.min_dispatch_95         -0
    RHS                    G_C.min_dispatch_96         -0  G_C.min_dispatch_97         -0
    RHS                    G_C.min_dispatch_98         -0  G_C.min_dispatch_99         -0
    RHS                    G_C.min_dispatch_100        -0  G_C.min_dispatch_101        -0
    RHS                    G_C.min_dispatch_102        -0  G_C.min_dispatch_103        -0
    RHS                    G_C.min_dispatch_104        -0  G_C.min_dispatch_105        -0
    RHS                    G_C.min_dispatch_106        -0  G_C.min_dispatch_107        -0
    RHS                    G_C.min_dispatch_108        -0  G_C.min_dispatch_109        -0
    RHS                    G_C.min_dispatch_110        -0  G_C.min_dispatch_111        -0
    RHS                    G_C.min_dispatch_112        -0  G_C.min_dispatch_113        -0
    RHS                    G_C.min_dispatch_114        -0  G_C.min_dispatch_115        -0
    RHS                    G_C.min_dispatch_116        -0  G_C.min_dispatch_117        -0
    RHS                    G_C.min_dispatch_118        -0  G_C.min_dispatch_119        -0
    RHS                    G_C.min_dispatch_120        -0  G_C.min_dispatch_121        -0
    RHS                    G_C.min_dispatch_122        -0  G_C.min_dispatch_123        -0
    RHS                    G_C.min_dispatch_124        -0  G_C.min_dispatch_125        -0
    RHS                    G_C.min_dispatch_126        -0  G_C.min_dispatch_127        -0
    RHS                    G_C.min_dispatch_128        -0  G_C.min_dispatch_129        -0
    RHS                    G_C.min_dispatch_130        -0  G_C.min_dispatch_131        -0
    RHS                    G_C.min_dispatch_132        -0  G_C.min_dispatch_133        -0
    RHS                    G_C.min_dispatch_134        -0  G_C.min_dispatch_135        -0
    RHS                    G_C.min_dispatch_136        -0  G_C.min_dispatch_137        -0
    RHS                    G_C.min_dispatch_138        -0  G_C.min_dispatch_139        -0
    RHS                    G_C.min_dispatch_140        -0  G_C.min_dispatch_141        -0
    RHS                    G_C.min_dispatch_142        -0  G_C.min_dispatch_143        -0
    RHS                    G_C.min_dispatch_144        -0  G_C.min_dispatch_145        -0
    RHS                    G_C.min_dispatch_146        -0  G_C.min_dispatch_147        -0
    RHS                    G_C.min_dispatch_148        -0  G_C.min_dispatch_149        -0
    RHS                    G_C.min_dispatch_150        -0  G_C.min_dispatch_151        -0
    RHS                    G_C.min_dispatch_152        -0  G_C.min_dispatch_153        -0
    RHS                    G_C.min_dispatch_154        -0  G_C.min_dispatch_155        -0
    RHS                    G_C.min_dispatch_156        -0  G_C.min_dispatch_157        -0
    RHS                    G_C.min_dispatch_158        -0  G_C.min_dispatch_159        -0
    RHS                    G_C.min_dispatch_160        -0  G_C.min_dispatch_161        -0
    RHS                    G_C.min_dispatch_162        -0  G_C.min_dispatch_163        -0
    RHS                    G_C.min_dispatch_164        -0  G_C.min_dispatch_165        -0
    RHS                    G_C.min_dispatch_166        -0  G_C.min_dispatch_167        -0
    RHS                    G_C.max_dispatch_0          -0  G_C.max_dispatch_1          -0
    RHS                    G_C.max_dispatch_2          -0  G_C.max_dispatch_3          -0
    RHS                    G_C.max_dispatch_4          -0  G_C.max_dispatch_5          -0
    RHS                    G_C.max_dispatch_6          -0  G_C.max_dispatch_7          -0
    RHS                    G_C.max_dispatch_8          -0  G_C.max_dispatch_9          -0
    RHS                    G_C.max_dispatch_10         -0  G_C.max_dispatch_11         -0
    RHS                    G_C.max_dispatch_12         -0  G_C.max_dispatch_13         -0
    RHS                    G_C.max_dispatch_14         -0  G_C.max_dispatch_15         -0
    RHS                    G_C.max_dispatch_16         -0  G_C.max_dispatch_17         -0
    RHS                    G_C.max_dispatch_18         -0  G_C.max_dispatch_19         -0
    RHS                    G_C.max_dispatch_20         -0  G_C.max_dispatch_21         -0
    RHS                    G_C.max_dispatch_22         -0  G_C.max_dispatch_23         -0
    RHS                    G_C.max_dispatch_24         -0  G_C.max_dispatch_25         -0
    RHS                    G_C.max_dispatch_26         -0  G_C.max_dispatch_27         -0
    RHS                    G_C.max_dispatch_28         -0  G_C.max_dispatch_29         -0
    RHS                    G_C.max_dispatch_30         -0  G_C.max_dispatch_31         -0
    RHS                    G_C.max_dispatch_32         -0  G_C.max_dispatch_33         -0
    RHS                    G_C.max_dispatch_34         -0  G_C.max_dispatch_35         -0
    RHS                    G_C.max_dispatch_36         -0  G_C.max_dispatch_37         -0
    RHS                    G_C.max_dispatch_38         -0  G_C.max_dispatch_39         -0
    RHS                    G_C.max_dispatch_40         -0  G_C.max_dispatch_41         -0
    RHS                    G_C.max_dispatch_42         -0  G_C.max_dispatch_43         -0
    RHS                    G_C.max_dispatch_44         -0  G_C.max_dispatch_45         -0
    RHS                    G_C.max_dispatch_46         -0  G_C.max_dispatch_47         -0
    RHS                    G_C.max_dispatch_48         -0  G_C.max_dispatch_49         -0
    RHS                    G_C.max_dispatch_50         -0  G_C.max_dispatch_51         -0
    RHS                    G_C.max_dispatch_52         -0  G_C.max_dispatch_53         -0
    RHS                    G_C.max_dispatch_54         -0  G_C.max_dispatch_55         -0
    RHS                    G_C.max_dispatch_56         -0  G_C.max_dispatch_57         -0
    RHS                    G_C.max_dispatch_58         -0  G_C.max_dispatch_59         -0
    RHS                    G_C.max_dispatch_60         -0  G_C.max_dispatch_61         -0
    RHS                    G_C.max_dispatch_62         -0  G_C.max_dispatch_63         -0
    RHS                    G_C.max_dispatch_64         -0  G_C.max_dispatch_65         -0
    RHS                    G_C.max_dispatch_66         -0  G_C.max_dispatch_67         -0
    RHS                    G_C.max_dispatch_68         -0  G_C.max_dispatch_69         -0
    RHS                    G_C.max_dispatch_70         -0  G_C.max_dispatch_71         -0
    RHS                    G_C.max_dispatch_72         -0  G_C.max_dispatch_73         -0
    RHS                    G_C.max_dispatch_74         -0  G_C.max_dispatch_75         -0
    RHS                    G_C.max_dispatch_76         -0  G_C.max_dispatch_77         -0
    RHS                    G_C.max_dispatch_78         -0  G_C.max_dispatch_79         -0
    RHS                    G_C.max_dispatch_80         -0  G_C.max_dispatch_81         -0
    RHS                    G_C.max_dispatch_82         -0  G_C.max_dispatch_83         -0
    RHS                    G_C.max_dispatch_84         -0  G_C.max_dispatch_85         -0
    RHS                    G_C.max_dispatch_86         -0  G_C.max_dispatch_87         -0
    RHS                    G_C.max_dispatch_88         -0  G_C.max_dispatch_89         -0
    RHS                    G_C.max_dispatch_90         -0  G_C.max_dispatch_91         -0
    RHS                    G_C.max_dispatch_92         -0  G_C.max_dispatch_93         -0
    RHS                    G_C.max_dispatch_94         -0  G_C.max_dispatch_95         -0
    RHS                    G_C.max_dispatch_96         -0  G_C.max_dispatch_97         -0
    RHS                    G_C.max_dispatch_98         -0  G_C.max_dispatch_99         -0
    RHS                    G_C.max_dispatch_100        -0  G_C.max_dispatch_101        -0
    RHS                    G_C.max_dispatch_102        -0  G_C.max_dispatch_103        -0
    RHS                    G_C.max_dispatch_104        -0  G_C.max_dispatch_105        -0
    RHS                    G_C.max_dispatch_106        -0  G_C.max_dispatch_107        -0
    RHS                    G_C.max_dispatch_108        -0  G_C.max_dispatch_109        -0
    RHS                    G_C.max_dispatch_110        -0  G_C.max_dispatch_111        -0
    RHS                    G_C.max_dispatch_112        -0  G_C.max_dispatch_113        -0
    RHS                    G_C.max_dispatch_114        -0  G_C.max_dispatch_115        -0
    RHS                    G_C.max_dispatch_116        -0  G_C.max_dispatch_117        -0
    RHS                    G_C.max_dispatch_118        -0  G_C.max_dispatch_119        -0
    RHS                    G_C.max_dispatch_120        -0  G_C.max_dispatch_121        -0
    RHS                    G_C.max_dispatch_122        -0  G_C.max_dispatch_123        -0
    RHS                    G_C.max_dispatch_124        -0  G_C.max_dispatch_125        -0
    RHS                    G_C.max_dispatch_126        -0  G_C.max_dispatch_127        -0
    RHS                    G_C.max_dispatch_128        -0  G_C.max_dispatch_129        -0
    RHS                    G_C.max_dispatch_130        -0  G_C.max_dispatch_131        -0
    RHS                    G_C.max_dispatch_132        -0  G_C.max_dispatch_133        -0
    RHS                    G_C.max_dispatch_134        -0  G_C.max_dispatch_135        -0
    RHS                    G_C.max_dispatch_136        -0  G_C.max_dispatch_137        -0
    RHS                    G_C.max_dispatch_138        -0  G_C.max_dispatch_139        -0
    RHS                    G_C.max_dispatch_140        -0  G_C.max_dispatch_141        -0
    RHS                    G_C.max_dispatch_142        -0  G_C.max_dispatch_143        -0
    RHS                    G_C.max_dispatch_144        -0  G_C.max_dispatch_145        -0
    RHS                    G_C.max_dispatch_146        -0  G_C.max_dispatch_147        -0
    RHS                    G_C.max_dispatch_148        -0  G_C.max_dispatch_149        -0
    RHS                    G_C.max_dispatch_150        -0  G_C.max_dispatch_151        -0
    RHS                    G_C.max_dispatch_152        -0  G_C.max_dispatch_153        -0
    RHS                    G_C.max_dispatch_154        -0  G_C.max_dispatch_155        -0
    RHS                    G_C.max_dispatch_156        -0  G_C.max_dispatch_157        -0
    RHS                    G_C.max_dispatch_158        -0  G_C.max_dispatch_159        -0
    RHS                    G_C.max_dispatch_160        -0  G_C.max_dispatch_161        -0
    RHS                    G_C.max_dispatch_162        -0  G_C.max_dispatch_163        -0
    RHS                    G_C.max_dispatch_164        -0  G_C.max_dispatch_165        -0
    RHS                    G_C.max_dispatch_166        -0  G_C.max_dispatch_167        -0
    RHS                    G_C.min_production      -1e+10  G_C.max_production       1e+10
    RHS                    T_AB.dc_flow_0              -0  T_AB.dc_flow_1              -0
    RHS                    T_AB.dc_flow_2              -0  T_AB.dc_flow_3              -0
    RHS                    T_AB.dc_flow_4              -0  T_AB.dc_flow_5              -0
    RHS                    T_AB.dc_flow_6              -0  T_AB.dc_flow_7              -0
    RHS                    T_AB.dc_flow_8              -0  T_AB.dc_flow_9              -0
    RHS                    T_AB.dc_flow_10             -0  T_AB.dc_flow_11             -0
    RHS                    T_AB.dc_flow_12             -0  T_AB.dc_flow_13             -0
    RHS                    T_AB.dc_flow_14             -0  T_AB.dc_flow_15             -0
    RHS                    T_AB.dc_flow_16             -0  T_AB.dc_flow_17             -0
    RHS                    T_AB.dc_flow_18             -0  T_AB.dc_flow_19             -0
    RHS                    T_AB.dc_flow_20             -0  T_AB.dc_flow_21             -0
    RHS                    T_AB.dc_flow_22             -0  T_AB.dc_flow_23             -0
    RHS                    T_AB.dc_flow_24             -0  T_AB.dc_flow_25             -0
    RHS                    T_AB.dc_flow_26             -0  T_AB.dc_flow_27             -0
    RHS                    T_AB.dc_flow_28             -0  T_AB.dc_flow_29             -0
    RHS                    T_AB.dc_flow_30             -0  T_AB.dc_flow_31             -0
    RHS                    T_AB.dc_flow_32             -0  T_AB.dc_flow_33             -0
    RHS                    T_AB.dc_flow_34             -0  T_AB.dc_flow_35             -0
    RHS                    T_AB.dc_flow_36             -0  T_AB.dc_flow_37             -0
    RHS                    T_AB.dc_flow_38             -0  T_AB.dc_flow_39             -0
    RHS                    T_AB.dc_flow_40             -0  T_AB.dc_flow_41             -0
    RHS                    T_AB.dc_flow_42             -0  T_AB.dc_flow_43             -0
    RHS                    T_AB.dc_flow_44             -0  T_AB.dc_flow_45             -0
    RHS                    T_AB.dc_flow_46             -0  T_AB.dc_flow_47             -0
    RHS                    T_AB.dc_flow_48             -0  T_AB.dc_flow_49             -0
    RHS                    T_AB.dc_flow_50             -0  T_AB.dc_flow_51             -0
    RHS                    T_AB.dc_flow_52             -0  T_AB.dc_flow_53             -0
    RHS                    T_AB.dc_flow_54             -0  T_AB.dc_flow_55             -0
    RHS                    T_AB.dc_flow_56             -0  T_AB.dc_flow_57             -0
    RHS                    T_AB.dc_flow_58             -0  T_AB.dc_flow_59             -0
    RHS                    T_AB.dc_flow_60             -0  T_AB.dc_flow_61             -0
    RHS                    T_AB.dc_flow_62             -0  T_AB.dc_flow_63             -0
    RHS                    T_AB.dc_flow_64             -0  T_AB.dc_flow_65             -0
    RHS                    T_AB.dc_flow_66             -0  T_AB.dc_flow_67             -0
    RHS                    T_AB.dc_flow_68             -0  T_AB.dc_flow_69             -0
    RHS                    T_AB.dc_flow_70             -0  T_AB.dc_flow_71             -0
    RHS                    T_AB.dc_flow_72             -0  T_AB.dc_flow_73             -0
    RHS                    T_AB.dc_flow_74             -0  T_AB.dc_flow_75             -0
    RHS                    T_AB.dc_flow_76             -0  T_AB.dc_flow_77             -0
    RHS                    T_AB.dc_flow_78             -0  T_AB.dc_flow_79             -0
    RHS                    T_AB.dc_flow_80             -0  T_AB.dc_flow_81             -0
    RHS                    T_AB.dc_flow_82             -0  T_AB.dc_flow_83             -0
    RHS                    T_AB.dc_flow_84             -0  T_AB.dc_flow_85             -0
    RHS                    T_AB.dc_flow_86             -0  T_AB.dc_flow_87             -0
    RHS                    T_AB.dc_flow_88             -0  T_AB.dc_flow_89             -0
    RHS                    T_AB.dc_flow_90             -0  T_AB.dc_flow_91             -0
    RHS                    T_AB.dc_flow_92             -0  T_AB.dc_flow_93             -0
    RHS                    T_AB.dc_flow_94             -0  T_AB.dc_flow_95             -0
    RHS                    T_AB.dc_flow_96             -0  T_AB.dc_flow_97             -0
    RHS                    T_AB.dc_flow_98             -0  T_AB.dc_flow_99             -0
    RHS                    T_AB.dc_flow_100            -0  T_AB.dc_flow_101            -0
    RHS                    T_AB.dc_flow_102            -0  T_AB.dc_flow_103            -0
    RHS                    T_AB.dc_flow_104            -0  T_AB.dc_flow_105            -0
    RHS                    T_AB.dc_flow_106            -0  T_AB.dc_flow_107            -0
    RHS                    T_AB.dc_flow_108            -0  T_AB.dc_flow_109            -0
    RHS                    T_AB.dc_flow_110            -0  T_AB.dc_flow_111            -0
    RHS                    T_AB.dc_flow_112            -0  T_AB.dc_flow_113            -0
    RHS                    T_AB.dc_flow_114            -0  T_AB.dc_flow_115            -0
    RHS                    T_AB.dc_flow_116            -0  T_AB.dc_flow_117            -0
    RHS                    T_AB.dc_flow_118            -0  T_AB.dc_flow_119            -0
    RHS                    T_AB.dc_flow_120            -0  T_AB.dc_flow_121            -0
    RHS                    T_AB.dc_flow_122            -0  T_AB.dc_flow_123            -0
    RHS                    T_AB.dc_flow_124            -0  T_AB.dc_flow_125            -0
    RHS                    T_AB.dc_flow_126            -0  T_AB.dc_flow_127            -0
    RHS                    T_AB.dc_flow_128            -0  T_AB.dc_flow_129            -0
    RHS                    T_AB.dc_flow_130            -0  T_AB.dc_flow_131            -0
    RHS                    T_AB.dc_flow_132            -0  T_AB.dc_flow_133            -0
    RHS                    T_AB.dc_flow_134            -0  T_AB.dc_flow_135            -0
    RHS                    T_AB.dc_flow_136            -0  T_AB.dc_flow_137            -0
    RHS                    T_AB.dc_flow_138            -0  T_AB.dc_flow_139            -0
    RHS                    T_AB.dc_flow_140            -0  T_AB.dc_flow_141            -0
    RHS                    T_AB.dc_flow_142            -0  T_AB.dc_flow_143            -0
    RHS                    T_AB.dc_flow_144            -0  T_AB.dc_flow_145            -0
    RHS                    T_AB.dc_flow_146            -0  T_AB.dc_flow_147            -0
    RHS                    T_AB.dc_flow_148            -0  T_AB.dc_flow_149            -0
    RHS                    T_AB.dc_flow_150            -0  T_AB.dc_flow_151            -0
    RHS                    T_AB.dc_flow_152            -0  T_AB.dc_flow_153            -0
    RHS                    T_AB.dc_flow_154            -0  T_AB.dc_flow_155            -0
    RHS                    T_AB.dc_flow_156            -0  T_AB.dc_flow_157            -0
    RHS                    T_AB.dc_flow_158            -0  T_AB.dc_flow_159            -0
    RHS                    T_AB.dc_flow_160            -0  T_AB.dc_flow_161            -0
    RHS                    T_AB.dc_flow_162            -0  T_AB.dc_flow_163            -0
    RHS                    T_AB.dc_flow_164            -0  T_AB.dc_flow_165            -0
    RHS                    T_AB.dc_flow_166            -0  T_AB.dc_flow_167            -0
    RHS                    T_AB.upper_flow_0           -0  T_AB.upper_flow_1           -0
    RHS                    T_AB.upper_flow_2           -0  T_AB.upper_flow_3           -0
    RHS                    T_AB.upper_flow_4           -0  T_AB.upper_flow_5           -0
    RHS                    T_AB.upper_flow_6           -0  T_AB.upper_flow_7           -0
    RHS                    T_AB.upper_flow_8           -0  T_AB.upper_flow_9           -0
    RHS                    T_AB.upper_flow_10          -0  T_AB.upper_flow_11          -0
    RHS                    T_AB.upper_flow_12          -0  T_AB.upper_flow_13          -0
    RHS                    T_AB.upper_flow_14          -0  T_AB.upper_flow_15          -0
    RHS                    T_AB.upper_flow_16          -0  T_AB.upper_flow_17          -0
    RHS                    T_AB.upper_flow_18          -0  T_AB.upper_flow_19          -0
    RHS                    T_AB.upper_flow_20          -0  T_AB.upper_flow_21          -0
    RHS                    T_AB.upper_flow_22          -0  T_AB.upper_flow_23          -0
    RHS                    T_AB.upper_flow_24          -0  T_AB.upper_flow_25          -0
    RHS                    T_AB.upper_flow_26          -0  T_AB.upper_flow_27          -0
    RHS                    T_AB.upper_flow_28          -0  T_AB.upper_flow_29          -0
    RHS                    T_AB.upper_flow_30          -0  T_AB.upper_flow_31          -0
    RHS                    T_AB.upper_flow_32          -0  T_AB.upper_flow_33          -0
    RHS                    T_AB.upper_flow_34          -0  T_AB.upper_flow_35          -0
    RHS                    T_AB.upper_flow_36          -0  T_AB.upper_flow_37          -0
    RHS                    T_AB.upper_flow_38          -0  T_AB.upper_flow_39          -0
    RHS                    T_AB.upper_flow_40          -0  T_AB.upper_flow_41          -0
    RHS                    T_AB.upper_flow_42          -0  T_AB.upper_flow_43          -0
    RHS                    T_AB.upper_flow_44          -0  T_AB.upper_flow_45          -0
    RHS                    T_AB.upper_flow_46          -0  T_AB.upper_flow_47          -0
    RHS                    T_AB.upper_flow_48          -0  T_AB.upper_flow_49          -0
    RHS                    T_AB.upper_flow_50          -0  T_AB.upper_flow_51          -0
    RHS                    T_AB.upper_flow_52          -0  T_AB.upper_flow_53          -0
    RHS                    T_AB.upper_flow_54          -0  T_AB.upper_flow_55          -0
    RHS                    T_AB.upper_flow_56          -0  T_AB.upper_flow_57          -0
    RHS                    T_AB.upper_flow_58          -0  T_AB.upper_flow_59          -0
    RHS                    T_AB.upper_flow_60          -0  T_AB.upper_flow_61          -0
    RHS                    T_AB.upper_flow_62          -0  T_AB.upper_flow_63          -0
    RHS                    T_AB.upper_flow_64          -0  T_AB.upper_flow_65          -0
    RHS                    T_AB.upper_flow_66          -0  T_AB.upper_flow_67          -0
    RHS                    T_AB.upper_flow_68          -0  T_AB.upper_flow_69          -0
    RHS                    T_AB.upper_flow_70          -0  T_AB.upper_flow_71          -0
    RHS                    T_AB.upper_flow_72          -0  T_AB.upper_flow_73          -0
    RHS                    T_AB.upper_flow_74          -0  T_AB.upper_flow_75          -0
    RHS                    T_AB.upper_flow_76          -0  T_AB.upper_flow_77          -0
    RHS                    T_AB.upper_flow_78          -0  T_AB.upper_flow_79          -0
    RHS                    T_AB.upper_flow_80          -0  T_AB.upper_flow_81          -0
    RHS                    T_AB.upper_flow_82          -0  T_AB.upper_flow_83          -0
    RHS                    T_AB.upper_flow_84          -0  T_AB.upper_flow_85          -0
    RHS                    T_AB.upper_flow_86          -0  T_AB.upper_flow_87          -0
    RHS                    T_AB.upper_flow_88          -0  T_AB.upper_flow_89          -0
    RHS                    T_AB.upper_flow_90          -0  T_AB.upper_flow_91          -0
    RHS                    T_AB.upper_flow_92          -0  T_AB.upper_flow_93          -0
    RHS                    T_AB.upper_flow_94          -0  T_AB.upper_flow_95          -0
    RHS                    T_AB.upper_flow_96          -0  T_AB.upper_flow_97          -0
    RHS                    T_AB.upper_flow_98          -0  T_AB.upper_flow_99          -0
    RHS                    T_AB.upper_flow_100         -0  T_AB.upper_flow_101         -0
    RHS                    T_AB.upper_flow_102         -0  T_AB.upper_flow_103         -0
    RHS                    T_AB.upper_flow_104         -0  T_AB.upper_flow_105         -0
    RHS                    T_AB.upper_flow_106         -0  T_AB.upper_flow_107         -0
    RHS                    T_AB.upper_flow_108         -0  T_AB.upper_flow_109         -0
    RHS                    T_AB.upper_flow_110         -0  T_AB.upper_flow_111         -0
    RHS                    T_AB.upper_flow_112         -0  T_AB.upper_flow_113         -0
    RHS                    T_AB.upper_flow_114         -0  T_AB.upper_flow_115         -0
    RHS                    T_AB.upper_flow_116         -0  T_AB.upper_flow_117         -0
    RHS                    T_AB.upper_flow_118         -0  T_AB.upper_flow_119         -0
    RHS                    T_AB.upper_flow_120         -0  T_AB.upper_flow_121         -0
    RHS                    T_AB.upper_flow_122         -0  T_AB.upper_flow_123         -0
    RHS                    T_AB.upper_flow_124         -0  T_AB.upper_flow_125         -0
    RHS                    T_AB.upper_flow_126         -0  T_AB.upper_flow_127         -0
    RHS                    T_AB.upper_flow_128         -0  T_AB.upper_flow_129         -0
    RHS                    T_AB.upper_flow_130         -0  T_AB.upper_flow_131         -0
    RHS                    T_AB.upper_flow_132         -0  T_AB.upper_flow_133         -0
    RHS                    T_AB.upper_flow_134         -0  T_AB.upper_flow_135         -0
    RHS                    T_AB.upper_flow_136         -0  T_AB.upper_flow_137         -0
    RHS                    T_AB.upper_flow_138         -0  T_AB.upper_flow_139         -0
    RHS                    T_AB.upper_flow_140         -0  T_AB.upper_flow_141         -0
    RHS                    T_AB.upper_flow_142         -0  T_AB.upper_flow_143         -0
    RHS                    T_AB.upper_flow_144         -0  T_AB.upper_flow_145         -0
    RHS                    T_AB.upper_flow_146         -0  T_AB.upper_flow_147         -0
    RHS                    T_AB.upper_flow_148         -0  T_AB.upper_flow_149         -0
    RHS                    T_AB.upper_flow_150         -0  T_AB.upper_flow_151         -0
    RHS                    T_AB.upper_flow_152         -0  T_AB.upper_flow_153         -0
    RHS                    T_AB.upper_flow_154         -0  T_AB.upper_flow_155         -0
    RHS                    T_AB.upper_flow_156         -0  T_AB.upper_flow_157         -0
    RHS                    T_AB.upper_flow_158         -0  T_AB.upper_flow_159         -0
    RHS                    T_AB.upper_flow_160         -0  T_AB.upper_flow_161         -0
    RHS                    T_AB.upper_flow_162         -0  T_AB.upper_flow_163         -0
    RHS                    T_AB.upper_flow_164         -0  T_AB.upper_flow_165         -0
    RHS                    T_AB.upper_flow_166         -0  T_AB.upper_flow_167         -0
    RHS                    T_AB.lower_flow_0           -0  T_AB.lower_flow_1           -0
    RHS                    T_AB.lower_flow_2           -0  T_AB.lower_flow_3           -0
    RHS                    T_AB.lower_flow_4           -0  T_AB.lower_flow_5           -0
    RHS                    T_AB.lower_flow_6           -0  T_AB.lower_flow_7           -0
    RHS                    T_AB.lower_flow_8           -0  T_AB.lower_flow_9           -0
    RHS                    T_AB.lower_flow_10          -0  T_AB.lower_flow_11          -0
    RHS                    T_AB.lower_flow_12          -0  T_AB.lower_flow_13          -0
    RHS                    T_AB.lower_flow_14          -0  T_AB.lower_flow_15          -0
    RHS                    T_AB.lower_flow_16          -0  T_AB.lower_flow_17          -0
    RHS                    T_AB.lower_flow_18          -0  T_AB.lower_flow_19          -0
    RHS                    T_AB.lower_flow_20          -0  T_AB.lower_flow_21          -0
    RHS                    T_AB.lower_flow_22          -0  T_AB.lower_flow_23          -0
    RHS                    T_AB.lower_flow_24          -0  T_AB.lower_flow_25          -0
    RHS                    T_AB.lower_flow_26          -0  T_AB.lower_flow_27          -0
    RHS                    T_AB.lower_flow_28          -0  T_AB.lower_flow_29          -0
    RHS                    T_AB.lower_flow_30          -0  T_AB.lower_flow_31          -0
    RHS                    T_AB.lower_flow_32          -0  T_AB.lower_flow_33          -0
    RHS                    T_AB.lower_flow_34          -0  T_AB.lower_flow_35          -0
    RHS                    T_AB.lower_flow_36          -0  T_AB.lower_flow_37          -0
    RHS                    T_AB.lower_flow_38          -0  T_AB.lower_flow_39          -0
    RHS                    T_AB.lower_flow_40          -0  T_AB.lower_flow_41          -0
    RHS                    T_AB.lower_flow_42          -0  T_AB.lower_flow_43          -0
    RHS                    T_AB.lower_flow_44          -0  T_AB.lower_flow_45          -0
    RHS                    T_AB.lower_flow_46          -0  T_AB.lower_flow_47          -0
    RHS                    T_AB.lower_flow_48          -0  T_AB.lower_flow_49          -0
    RHS                    T_AB.lower_flow_50          -0  T_AB.lower_flow_51          -0
    RHS                    T_AB.lower_flow_52          -0  T_AB.lower_flow_53          -0
    RHS                    T_AB.lower_flow_54          -0  T_AB.lower_flow_55          -0
    RHS                    T_AB.lower_flow_56          -0  T_AB.lower_flow_57          -0
    RHS                    T_AB.lower_flow_58          -0  T_AB.lower_flow_59          -0
    RHS                    T_AB.lower_flow_60          -0  T_AB.lower_flow_61          -0
    RHS                    T_AB.lower_flow_62          -0  T_AB.lower_flow_63          -0
    RHS                    T_AB.lower_flow_64          -0  T_AB.lower_flow_65          -0
    RHS                    T_AB.lower_flow_66          -0  T_AB.lower_flow_67          -0
    RHS                    T_AB.lower_flow_68          -0  T_AB.lower_flow_69          -0
    RHS                    T_AB.lower_flow_70          -0  T_AB.lower_flow_71          -0
    RHS                    T_AB.lower_flow_72          -0  T_AB.lower_flow_73          -0
    RHS                    T_AB.lower_flow_74          -0  T_AB.lower_flow_75          -0
    RHS                    T_AB.lower_flow_76          -0  T_AB.lower_flow_77          -0
    RHS                    T_AB.lower_flow_78          -0  T_AB.lower_flow_79          -0
    RHS                    T_AB.lower_flow_80          -0  T_AB.lower_flow_81          -0
    RHS                    T_AB.lower_flow_82          -0  T_AB.lower_flow_83          -0
    RHS                    T_AB.lower_flow_84          -0  T_AB.lower_flow_85          -0
    RHS                    T_AB.lower_flow_86          -0  T_AB.lower_flow_87          -0
    RHS                    T_AB.lower_flow_88          -0  T_AB.lower_flow_89          -0
    RHS                    T_AB.lower_flow_90          -0  T_AB.lower_flow_91          -0
    RHS                    T_AB.lower_flow_92          -0  T_AB.lower_flow_93          -0
    RHS                    T_AB.lower_flow_94          -0  T_AB.lower_flow_95          -0
    RHS                    T_AB.lower_flow_96          -0  T_AB.lower_flow_97          -0
    RHS                    T_AB.lower_flow_98          -0  T_AB.lower_flow_99          -0
    RHS                    T_AB.lower_flow_100         -0  T_AB.lower_flow_101         -0
    RHS                    T_AB.lower_flow_102         -0  T_AB.lower_flow_103         -0
    RHS                    T_AB.lower_flow_104         -0  T_AB.lower_flow_105         -0
    RHS                    T_AB.lower_flow_106         -0  T_AB.lower_flow_107         -0
    RHS                    T_AB.lower_flow_108         -0  T_AB.lower_flow_109         -0
    RHS                    T_AB.lower_flow_110         -0  T_AB.lower_flow_111         -0
    RHS                    T_AB.lower_flow_112         -0  T_AB.lower_flow_113         -0
    RHS                    T_AB.lower_flow_114         -0  T_AB.lower_flow_115         -0
    RHS                    T_AB.lower_flow_116         -0  T_AB.lower_flow_117         -0
    RHS                    T_AB.lower_flow_118         -0  T_AB.lower_flow_119         -0
    RHS                    T_AB.lower_flow_120         -0  T_AB.lower_flow_121         -0
    RHS                    T_AB.lower_flow_122         -0  T_AB.lower_flow_123         -0
    RHS                    T_AB.lower_flow_124         -0  T_AB.lower_flow_125         -0
    RHS                    T_AB.lower_flow_126         -0  T_AB.lower_flow_127         -0
    RHS                    T_AB.lower_flow_128         -0  T_AB.lower_flow_129         -0
    RHS                    T_AB.lower_flow_130         -0  T_AB.lower_flow_131         -0
    RHS                    T_AB.lower_flow_132         -0  T_AB.lower_flow_133         -0
    RHS                    T_AB.lower_flow_134         -0  T_AB.lower_flow_135         -0
    RHS                    T_AB.lower_flow_136         -0  T_AB.lower_flow_137         -0
    RHS                    T_AB.lower_flow_138         -0  T_AB.lower_flow_139         -0
    RHS                    T_AB.lower_flow_140         -0  T_AB.lower_flow_141         -0
    RHS                    T_AB.lower_flow_142         -0  T_AB.lower_flow_143         -0
    RHS                    T_AB.lower_flow_144         -0  T_AB.lower_flow_145         -0
    RHS                    T_AB.lower_flow_146         -0  T_AB.lower_flow_147         -0
    RHS                    T_AB.lower_flow_148         -0  T_AB.lower_flow_149         -0
    RHS                    T_AB.lower_flow_150         -0  T_AB.lower_flow_151         -0
    RHS                    T_AB.lower_flow_152         -0  T_AB.lower_flow_153         -0
    RHS                    T_AB.lower_flow_154         -0  T_AB.lower_flow_155         -0
    RHS                    T_AB.lower_flow_156         -0  T_AB.lower_flow_157         -0
    RHS                    T_AB.lower_flow_158         -0  T_AB.lower_flow_159         -0
    RHS                    T_AB.lower_flow_160         -0  T_AB.lower_flow_161         -0
    RHS                    T_AB.lower_flow_162         -0  T_AB.lower_flow_163         -0
    RHS                    T_AB.lower_flow_164         -0  T_AB.lower_flow_165         -0
    RHS                    T_AB.lower_flow_166         -0  T_AB.lower_flow_167         -0
    RHS                    BC.dc_flow_0                -0  BC.dc_flow_1                -0
    RHS                    BC.dc_flow_2                -0  BC.dc_flow_3                -0
    RHS                    BC.dc_flow_4                -0  BC.dc_flow_5                -0
    RHS                    BC.dc_flow_6                -0  BC.dc_flow_7                -0
    RHS                    BC.dc_flow_8                -0  BC.dc_flow_9                -0
    RHS                    BC.dc_flow_10               -0  BC.dc_flow_11               -0
    RHS                    BC.dc_flow_12               -0  BC.dc_flow_13               -0
    RHS                    BC.dc_flow_14               -0  BC.dc_flow_15               -0
    RHS                    BC.dc_flow_16               -0  BC.dc_flow_17               -0
    RHS                    BC.dc_flow_18               -0  BC.dc_flow_19               -0
    RHS                    BC.dc_flow_20               -0  BC.dc_flow_21               -0
    RHS                    BC.dc_flow_22               -0  BC.dc_flow_23               -0
    RHS                    BC.dc_flow_24               -0  BC.dc_flow_25               -0
    RHS                    BC.dc_flow_26               -0  BC.dc_flow_27               -0
    RHS                    BC.dc_flow_28               -0  BC.dc_flow_29               -0
    RHS                    BC.dc_flow_30               -0  BC.dc_flow_31               -0
    RHS                    BC.dc_flow_32               -0  BC.dc_flow_33               -0
    RHS                    BC.dc_flow_34               -0  BC.dc_flow_35               -0
    RHS                    BC.dc_flow_36               -0  BC.dc_flow_37               -0
    RHS                    BC.dc_flow_38               -0  BC.dc_flow_39               -0
    RHS                    BC.dc_flow_40               -0  BC.dc_flow_41               -0
    RHS                    BC.dc_flow_42               -0  BC.dc_flow_43               -0
    RHS                    BC.dc_flow_44               -0  BC.dc_flow_45               -0
    RHS                    BC.dc_flow_46               -0  BC.dc_flow_47               -0
    RHS                    BC.dc_flow_48               -0  BC.dc_flow_49               -0
    RHS                    BC.dc_flow_50               -0  BC.dc_flow_51               -0
    RHS                    BC.dc_flow_52               -0  BC.dc_flow_53               -0
    RHS                    BC.dc_flow_54               -0  BC.dc_flow_55               -0
    RHS                    BC.dc_flow_56               -0  BC.dc_flow_57               -0
    RHS                    BC.dc_flow_58               -0  BC.dc_flow_59               -0
    RHS                    BC.dc_flow_60               -0  BC.dc_flow_61               -0
    RHS                    BC.dc_flow_62               -0  BC.dc_flow_63               -0
    RHS                    BC.dc_flow_64               -0  BC.dc_flow_65               -0
    RHS                    BC.dc_flow_66               -0  BC.dc_flow_67               -0
    RHS                    BC.dc_flow_68               -0  BC.dc_flow_69               -0
    RHS                    BC.dc_flow_70               -0  BC.dc_flow_71               -0
    RHS                    BC.dc_flow_72               -0  BC.dc_flow_73               -0
    RHS                    BC.dc_flow_74               -0  BC.dc_flow_75               -0
    RHS                    BC.dc_flow_76               -0  BC.dc_flow_77               -0
    RHS                    BC.dc_flow_78               -0  BC.dc_flow_79               -0
    RHS                    BC.dc_flow_80               -0  BC.dc_flow_81               -0
    RHS                    BC.dc_flow_82               -0  BC.dc_flow_83               -0
    RHS                    BC.dc_flow_84               -0  BC.dc_flow_85               -0
    RHS                    BC.dc_flow_86               -0  BC.dc_flow_87               -0
    RHS                    BC.dc_flow_88               -0  BC.dc_flow_89               -0
    RHS                    BC.dc_flow_90               -0  BC.dc_flow_91               -0
    RHS                    BC.dc_flow_92               -0  BC.dc_flow_93               -0
    RHS                    BC.dc_flow_94               -0  BC.dc_flow_95               -0
    RHS                    BC.dc_flow_96               -0  BC.dc_flow_97               -0
    RHS                    BC.dc_flow_98               -0  BC.dc_flow_99               -0
    RHS                    BC.dc_flow_100              -0  BC.dc_flow_101              -0
    RHS                    BC.dc_flow_102              -0  BC.dc_flow_103              -0
    RHS                    BC.dc_flow_104              -0  BC.dc_flow_105              -0
    RHS                    BC.dc_flow_106              -0  BC.dc_flow_107              -0
    RHS                    BC.dc_flow_108              -0  BC.dc_flow_109              -0
    RHS                    BC.dc_flow_110              -0  BC.dc_flow_111              -0
    RHS                    BC.dc_flow_112              -0  BC.dc_flow_113              -0
    RHS                    BC.dc_flow_114              -0  BC.dc_flow_115              -0
    RHS                    BC.dc_flow_116              -0  BC.dc_flow_117              -0
    RHS                    BC.dc_flow_118              -0  BC.dc_flow_119              -0
    RHS                    BC.dc_flow_120              -0  BC.dc_flow_121              -0
    RHS                    BC.dc_flow_122              -0  BC.dc_flow_123              -0
    RHS                    BC.dc_flow_124              -0  BC.dc_flow_125              -0
    RHS                    BC.dc_flow_126              -0  BC.dc_flow_127              -0
    RHS                    BC.dc_flow_128              -0  BC.dc_flow_129              -0
    RHS                    BC.dc_flow_130              -0  BC.dc_flow_131              -0
    RHS                    BC.dc_flow_132              -0  BC.dc_flow_133              -0
    RHS                    BC.dc_flow_134              -0  BC.dc_flow_135              -0
    RHS                    BC.dc_flow_136              -0  BC.dc_flow_137              -0
    RHS                    BC.dc_flow_138              -0  BC.dc_flow_139              -0
    RHS                    BC.dc_flow_140              -0  BC.dc_flow_141              -0
    RHS                    BC.dc_flow_142              -0  BC.dc_flow_143              -0
    RHS                    BC.dc_flow_144              -0  BC.dc_flow_145              -0
    RHS                    BC.dc_flow_146              -0  BC.dc_flow_147              -0
    RHS                    BC.dc_flow_148              -0  BC.dc_flow_149              -0
    RHS                    BC.dc_flow_150              -0  BC.dc_flow_151              -0
    RHS                    BC.dc_flow_152              -0  BC.dc_flow_153              -0
    RHS                    BC.dc_flow_154              -0  BC.dc_flow_155              -0
    RHS                    BC.dc_flow_156              -0  BC.dc_flow_157              -0
    RHS                    BC.dc_flow_158              -0  BC.dc_flow_159              -0
    RHS                    BC.dc_flow_160              -0  BC.dc_flow_161              -0
    RHS                    BC.dc_flow_162              -0  BC.dc_flow_163              -0
    RHS                    BC.dc_flow_164              -0  BC.dc_flow_165              -0
    RHS                    BC.dc_flow_166              -0  BC.dc_flow_167              -0
    RHS                    BC.upper_flow_0             -0  BC.upper_flow_1             -0
    RHS                    BC.upper_flow_2             -0  BC.upper_flow_3             -0
    RHS                    BC.upper_flow_4             -0  BC.upper_flow_5             -0
    RHS                    BC.upper_flow_6             -0  BC.upper_flow_7             -0
    RHS                    BC.upper_flow_8             -0  BC.upper_flow_9             -0
    RHS                    BC.upper_flow_10            -0  BC.upper_flow_11            -0
    RHS                    BC.upper_flow_12            -0  BC.upper_flow_13            -0
    RHS                    BC.upper_flow_14            -0  BC.upper_flow_15            -0
    RHS                    BC.upper_flow_16            -0  BC.upper_flow_17            -0
    RHS                    BC.upper_flow_18            -0  BC.upper_flow_19            -0
    RHS                    BC.upper_flow_20            -0  BC.upper_flow_21            -0
    RHS                    BC.upper_flow_22            -0  BC.upper_flow_23            -0
    RHS                    BC.upper_flow_24            -0  BC.upper_flow_25            -0
    RHS                    BC.upper_flow_26            -0  BC.upper_flow_27            -0
    RHS                    BC.upper_flow_28            -0  BC.upper_flow_29            -0
    RHS                    BC.upper_flow_30            -0  BC.upper_flow_31            -0
    RHS                    BC.upper_flow_32            -0  BC.upper_flow_33            -0
    RHS                    BC.upper_flow_34            -0  BC.upper_flow_35            -0
    RHS                    BC.upper_flow_36            -0  BC.upper_flow_37            -0
    RHS                    BC.upper_flow_38            -0  BC.upper_flow_39            -0
    RHS                    BC.upper_flow_40            -0  BC.upper_flow_41            -0
    RHS                    BC.upper_flow_42            -0  BC.upper_flow_43            -0
    RHS                    BC.upper_flow_44            -0  BC.upper_flow_45            -0
    RHS                    BC.upper_flow_46            -0  BC.upper_flow_47            -0
    RHS                    BC.upper_flow_48            -0  BC.upper_flow_49            -0
    RHS                    BC.upper_flow_50            -0  BC.upper_flow_51            -0
    RHS                    BC.upper_flow_52            -0  BC.upper_flow_53            -0
    RHS                    BC.upper_flow_54            -0  BC.upper_flow_55            -0
    RHS                    BC.upper_flow_56            -0  BC.upper_flow_57            -0
    RHS                    BC.upper_flow_58            -0  BC.upper_flow_59            -0
    RHS                    BC.upper_flow_60            -0  BC.upper_flow_61            -0
    RHS                    BC.upper_flow_62            -0  BC.upper_flow_63            -0
    RHS                    BC.upper_flow_64            -0  BC.upper_flow_65            -0
    RHS                    BC.upper_flow_66            -0  BC.upper_flow_67            -0
    RHS                    BC.upper_flow_68            -0  BC.upper_flow_69            -0
    RHS                    BC.upper_flow_70            -0  BC.upper_flow_71            -0
    RHS                    BC.upper_flow_72            -0  BC.upper_flow_73            -0
    RHS                    BC.upper_flow_74            -0  BC.upper_flow_75            -0
    RHS                    BC.upper_flow_76            -0  BC.upper_flow_77            -0
    RHS                    BC.upper_flow_78            -0  BC.upper_flow_79            -0
    RHS                    BC.upper_flow_80            -0  BC.upper_flow_81            -0
    RHS                    BC.upper_flow_82            -0  BC.upper_flow_83            -0
    RHS                    BC.upper_flow_84            -0  BC.upper_flow_85            -0
    RHS                    BC.upper_flow_86            -0  BC.upper_flow_87            -0
    RHS                    BC.upper_flow_88            -0  BC.upper_flow_89            -0
    RHS                    BC.upper_flow_90            -0  BC.upper_flow_91            -0
    RHS                    BC.upper_flow_92            -0  BC.upper_flow_93            -0
    RHS                    BC.upper_flow_94            -0  BC.upper_flow_95            -0
    RHS                    BC.upper_flow_96            -0  BC.upper_flow_97            -0
    RHS                    BC.upper_flow_98            -0  BC.upper_flow_99            -0
    RHS                    BC.upper_flow_100           -0  BC.upper_flow_101           -0
    RHS                    BC.upper_flow_102           -0  BC.upper_flow_103           -0
    RHS                    BC.upper_flow_104           -0  BC.upper_flow_105           -0
    RHS                    BC.upper_flow_106           -0  BC.upper_flow_107           -0
    RHS                    BC.upper_flow_108           -0  BC.upper_flow_109           -0
    RHS                    BC.upper_flow_110           -0  BC.upper_flow_111           -0
    RHS                    BC.upper_flow_112           -0  BC.upper_flow_113           -0
    RHS                    BC.upper_flow_114           -0  BC.upper_flow_115           -0
    RHS                    BC.upper_flow_116           -0  BC.upper_flow_117           -0
    RHS                    BC.upper_flow_118           -0  BC.upper_flow_119           -0
    RHS                    BC.upper_flow_120           -0  BC.upper_flow_121           -0
    RHS                    BC.upper_flow_122           -0  BC.upper_flow_123           -0
    RHS                    BC.upper_flow_124           -0  BC.upper_flow_125           -0
    RHS                    BC.upper_flow_126           -0  BC.upper_flow_127           -0
    RHS                    BC.upper_flow_128           -0  BC.upper_flow_129           -0
    RHS                    BC.upper_flow_130           -0  BC.upper_flow_131           -0
    RHS                    BC.upper_flow_132           -0  BC.upper_flow_133           -0
    RHS                    BC.upper_flow_134           -0  BC.upper_flow_135           -0
    RHS                    BC.upper_flow_136           -0  BC.upper_flow_137           -0
    RHS                    BC.upper_flow_138           -0  BC.upper_flow_139           -0
    RHS                    BC.upper_flow_140           -0  BC.upper_flow_141           -0
    RHS                    BC.upper_flow_142           -0  BC.upper_flow_143           -0
    RHS                    BC.upper_flow_144           -0  BC.upper_flow_145           -0
    RHS                    BC.upper_flow_146           -0  BC.upper_flow_147           -0
    RHS                    BC.upper_flow_148           -0  BC.upper_flow_149           -0
    RHS                    BC.upper_flow_150           -0  BC.upper_flow_151           -0
    RHS                    BC.upper_flow_152           -0  BC.upper_flow_153           -0
    RHS                    BC.upper_flow_154           -0  BC.upper_flow_155           -0
    RHS                    BC.upper_flow_156           -0  BC.upper_flow_157           -0
    RHS                    BC.upper_flow_158           -0  BC.upper_flow_159           -0
    RHS                    BC.upper_flow_160           -0  BC.upper_flow_161           -0
    RHS                    BC.upper_flow_162           -0  BC.upper_flow_163           -0
    RHS                    BC.upper_flow_164           -0  BC.upper_flow_165           -0
    RHS                    BC.upper_flow_166           -0  BC.upper_flow_167           -0
    RHS                    BC.lower_flow_0             -0  BC.lower_flow_1             -0
    RHS                    BC.lower_flow_2             -0  BC.lower_flow_3             -0
    RHS                    BC.lower_flow_4             -0  BC.lower_flow_5             -0
    RHS                    BC.lower_flow_6             -0  BC.lower_flow_7             -0
    RHS                    BC.lower_flow_8             -0  BC.lower_flow_9             -0
    RHS                    BC.lower_flow_10            -0  BC.lower_flow_11            -0
    RHS                    BC.lower_flow_12            -0  BC.lower_flow_13            -0
    RHS                    BC.lower_flow_14            -0  BC.lower_flow_15            -0
    RHS                    BC.lower_flow_16            -0  BC.lower_flow_17            -0
    RHS                    BC.lower_flow_18            -0  BC.lower_flow_19            -0
    RHS                    BC.lower_flow_20            -0  BC.lower_flow_21            -0
    RHS                    BC.lower_flow_22            -0  BC.lower_flow_23            -0
    RHS                    BC.lower_flow_24            -0  BC.lower_flow_25            -0
    RHS                    BC.lower_flow_26            -0  BC.lower_flow_27            -0
    RHS                    BC.lower_flow_28            -0  BC.lower_flow_29            -0
    RHS                    BC.lower_flow_30            -0  BC.lower_flow_31            -0
    RHS                    BC.lower_flow_32            -0  BC.lower_flow_33            -0
    RHS                    BC.lower_flow_34            -0  BC.lower_flow_35            -0
    RHS                    BC.lower_flow_36            -0  BC.lower_flow_37            -0
    RHS                    BC.lower_flow_38            -0  BC.lower_flow_39            -0
    RHS                    BC.lower_flow_40            -0  BC.lower_flow_41            -0
    RHS                    BC.lower_flow_42            -0  BC.lower_flow_43            -0
    RHS                    BC.lower_flow_44            -0  BC.lower_flow_45            -0
    RHS                    BC.lower_flow_46            -0  BC.lower_flow_47            -0
    RHS                    BC.lower_flow_48            -0  BC.lower_flow_49            -0
    RHS                    BC.lower_flow_50            -0  BC.lower_flow_51            -0
    RHS                    BC.lower_flow_52            -0  BC.lower_flow_53            -0
    RHS                    BC.lower_flow_54            -0  BC.lower_flow_55            -0
    RHS                    BC.lower_flow_56            -0  BC.lower_flow_57            -0
    RHS                    BC.lower_flow_58            -0  BC.lower_flow_59            -0
    RHS                    BC.lower_flow_60            -0  BC.lower_flow_61            -0
    RHS                    BC.lower_flow_62            -0  BC.lower_flow_63            -0
    RHS                    BC.lower_flow_64            -0  BC.lower_flow_65            -0
    RHS                    BC.lower_flow_66            -0  BC.lower_flow_67            -0
    RHS                    BC.lower_flow_68            -0  BC.lower_flow_69            -0
    RHS                    BC.lower_flow_70            -0  BC.lower_flow_71            -0
    RHS                    BC.lower_flow_72            -0  BC.lower_flow_73            -0
    RHS                    BC.lower_flow_74            -0  BC.lower_flow_75            -0
    RHS                    BC.lower_flow_76            -0  BC.lower_flow_77            -0
    RHS                    BC.lower_flow_78            -0  BC.lower_flow_79            -0
    RHS                    BC.lower_flow_80            -0  BC.lower_flow_81            -0
    RHS                    BC.lower_flow_82            -0  BC.lower_flow_83            -0
    RHS                    BC.lower_flow_84            -0  BC.lower_flow_85            -0
    RHS                    BC.lower_flow_86            -0  BC.lower_flow_87            -0
    RHS                    BC.lower_flow_88            -0  BC.lower_flow_89            -0
    RHS                    BC.lower_flow_90            -0  BC.lower_flow_91            -0
    RHS                    BC.lower_flow_92            -0  BC.lower_flow_93            -0
    RHS                    BC.lower_flow_94            -0  BC.lower_flow_95            -0
    RHS                    BC.lower_flow_96            -0  BC.lower_flow_97            -0
    RHS                    BC.lower_flow_98            -0  BC.lower_flow_99            -0
    RHS                    BC.lower_flow_100           -0  BC.lower_flow_101           -0
    RHS                    BC.lower_flow_102           -0  BC.lower_flow_103           -0
    RHS                    BC.lower_flow_104           -0  BC.lower_flow_105           -0
    RHS                    BC.lower_flow_106           -0  BC.lower_flow_107           -0
    RHS                    BC.lower_flow_108           -0  BC.lower_flow_109           -0
    RHS                    BC.lower_flow_110           -0  BC.lower_flow_111           -0
    RHS                    BC.lower_flow_112           -0  BC.lower_flow_113           -0
    RHS                    BC.lower_flow_114           -0  BC.lower_flow_115           -0
    RHS                    BC.lower_flow_116           -0  BC.lower_flow_117           -0
    RHS                    BC.lower_flow_118           -0  BC.lower_flow_119           -0
    RHS                    BC.lower_flow_120           -0  BC.lower_flow_121           -0
    RHS                    BC.lower_flow_122           -0  BC.lower_flow_123           -0
    RHS                    BC.lower_flow_124           -0  BC.lower_flow_125           -0
    RHS                    BC.lower_flow_126           -0  BC.lower_flow_127           -0
    RHS                    BC.lower_flow_128           -0  BC.lower_flow_129           -0
    RHS                    BC.lower_flow_130           -0  BC.lower_flow_131           -0
    RHS                    BC.lower_flow_132           -0  BC.lower_flow_133           -0
    RHS                    BC.lower_flow_134           -0  BC.lower_flow_135           -0
    RHS                    BC.lower_flow_136           -0  BC.lower_flow_137           -0
    RHS                    BC.lower_flow_138           -0  BC.lower_flow_139           -0
    RHS                    BC.lower_flow_140           -0  BC.lower_flow_141           -0
    RHS                    BC.lower_flow_142           -0  BC.lower_flow_143           -0
    RHS                    BC.lower_flow_144           -0  BC.lower_flow_145           -0
    RHS                    BC.lower_flow_146           -0  BC.lower_flow_147           -0
    RHS                    BC.lower_flow_148           -0  BC.lower_flow_149           -0
    RHS                    BC.lower_flow_150           -0  BC.lower_flow_151           -0
    RHS                    BC.lower_flow_152           -0  BC.lower_flow_153           -0
    RHS                    BC.lower_flow_154           -0  BC.lower_flow_155           -0
    RHS                    BC.lower_flow_156           -0  BC.lower_flow_157           -0
    RHS                    BC.lower_flow_158           -0  BC.lower_flow_159           -0
    RHS                    BC.lower_flow_160           -0  BC.lower_flow_161           -0
    RHS                    BC.lower_flow_162           -0  BC.lower_flow_163           -0
    RHS                    BC.lower_flow_164           -0  BC.lower_flow_165           -0
    RHS                    BC.lower_flow_166           -0  BC.lower_flow_167           -0
BOUNDS
 FR BOUND                  A_HV.theta_s0_t0
 FR BOUND                  A_HV.theta_s0_t1
 FR BOUND                  A_HV.theta_s0_t2
 FR BOUND                  A_HV.theta_s0_t3
 FR BOUND                  A_HV.theta_s0_t4
 FR BOUND                  A_HV.theta_s0_t5
 FR BOUND                  A_HV.theta_s0_t6
 FR BOUND                  A_HV.theta_s0_t7
 FR BOUND                  A_HV.theta_s0_t8
 FR BOUND                  A_HV.theta_s0_t9
 FR BOUND                  A_HV.theta_s0_t10
 FR BOUND                  A_HV.theta_s0_t11
 FR BOUND                  A_HV.theta_s0_t12
 FR BOUND                  A_HV.theta_s0_t13
 FR BOUND                  A_HV.theta_s0_t14
 FR BOUND                  A_HV.theta_s0_t15
 FR BOUND                  A_HV.theta_s0_t16
 FR BOUND                  A_HV.theta_s0_t17
 FR BOUND                  A_HV.theta_s0_t18
 FR BOUND                  A_HV.theta_s0_t19
 FR BOUND                  A_HV.theta_s0_t20
 FR BOUND                  A_HV.theta_s0_t21
 FR BOUND                  A_HV.theta_s0_t22
 FR BOUND                  A_HV.theta_s0_t23
 FR BOUND                  A_HV.theta_s0_t24
 FR BOUND                  A_HV.theta_s0_t25
 FR BOUND                  A_HV.theta_s0_t26
 FR BOUND                  A_HV.theta_s0_t27
 FR BOUND                  A_HV.theta_s0_t28
 FR BOUND                  A_HV.theta_s0_t29
 FR BOUND                  A_HV.theta_s0_t30
 FR BOUND                  A_HV.theta_s0_t31
 FR BOUND                  A_HV.theta_s0_t32
 FR BOUND                  A_HV.theta_s0_t33
 FR BOUND                  A_HV.theta_s0_t34
 FR BOUND                  A_HV.theta_s0_t35
 FR BOUND                  A_HV.theta_s0_t36
 FR BOUND                  A_HV.theta_s0_t37
 FR BOUND                  A_HV.theta_s0_t38
 FR BOUND                  A_HV.theta_s0_t39
 FR BOUND                  A_HV.theta_s0_t40
 FR BOUND                  A_HV.theta_s0_t41
 FR BOUND                  A_HV.theta_s0_t42
 FR BOUND                  A_HV.theta_s0_t43
 FR BOUND                  A_HV.theta_s0_t44
 FR BOUND                  A_HV.theta_s0_t45
 FR BOUND                  A_HV.theta_s0_t46
 FR BOUND                  A_HV.theta_s0_t47
 FR BOUND                  A_HV.theta_s0_t48
 FR BOUND                  A_HV.theta_s0_t49
 FR BOUND                  A_HV.theta_s0_t50
 FR BOUND                  A_HV.theta_s0_t51
 FR BOUND                  A_HV.theta_s0_t52
 FR BOUND                  A_HV.theta_s0_t53
 FR BOUND                  A_HV.theta_s0_t54
 FR BOUND                  A_HV.theta_s0_t55
 FR BOUND                  A_HV.theta_s0_t56
 FR BOUND                  A_HV.theta_s0_t57
 FR BOUND                  A_HV.theta_s0_t58
 FR BOUND                  A_HV.theta_s0_t59
 FR BOUND                  A_HV.theta_s0_t60
 FR BOUND                  A_HV.theta_s0_t61
 FR BOUND                  A_HV.theta_s0_t62
 FR BOUND                  A_HV.theta_s0_t63
 FR BOUND                  A_HV.theta_s0_t64
 FR BOUND                  A_HV.theta_s0_t65
 FR BOUND                  A_HV.theta_s0_t66
 FR BOUND                  A_HV.theta_s0_t67
 FR BOUND                  A_HV.theta_s0_t68
 FR BOUND                  A_HV.theta_s0_t69
 FR BOUND                  A_HV.theta_s0_t70
 FR BOUND                  A_HV.theta_s0_t71
 FR BOUND                  A_HV.theta_s0_t72
 FR BOUND                  A_HV.theta_s0_t73
 FR BOUND                  A_HV.theta_s0_t74
 FR BOUND                  A_HV.theta_s0_t75
 FR BOUND                  A_HV.theta_s0_t76
 FR BOUND                  A_HV.theta_s0_t77
 FR BOUND                  A_HV.theta_s0_t78
 FR BOUND                  A_HV.theta_s0_t79
 FR BOUND                  A_HV.theta_s0_t80
 FR BOUND                  A_HV.theta_s0_t81
 FR BOUND                  A_HV.theta_s0_t82
 FR BOUND                  A_HV.theta_s0_t83
 FR BOUND                  A_HV.theta_s0_t84
 FR BOUND                  A_HV.theta_s0_t85
 FR BOUND                  A_HV.theta_s0_t86
 FR BOUND                  A_HV.theta_s0_t87
 FR BOUND                  A_HV.theta_s0_t88
 FR BOUND                  A_HV.theta_s0_t89
 FR BOUND                  A_HV.theta_s0_t90
 FR BOUND                  A_HV.theta_s0_t91
 FR BOUND                  A_HV.theta_s0_t92
 FR BOUND                  A_HV.theta_s0_t93
 FR BOUND                  A_HV.theta_s0_t94
 FR BOUND                  A_HV.theta_s0_t95
 FR BOUND                  A_HV.theta_s0_t96
 FR BOUND                  A_HV.theta_s0_t97
 FR BOUND                  A_HV.theta_s0_t98
 FR BOUND                  A_HV.theta_s0_t99
 FR BOUND                  A_HV.theta_s0_t100
 FR BOUND                  A_HV.theta_s0_t101
 FR BOUND                  A_HV.theta_s0_t102
 FR BOUND                  A_HV.theta_s0_t103
 FR BOUND                  A_HV.theta_s0_t104
 FR BOUND                  A_HV.theta_s0_t105
 FR BOUND                  A_HV.theta_s0_t106
 FR BOUND                  A_HV.theta_s0_t107
 FR BOUND                  A_HV.theta_s0_t108
 FR BOUND                  A_HV.theta_s0_t109
 FR BOUND                  A_HV.theta_s0_t110
 FR BOUND                  A_HV.theta_s0_t111
 FR BOUND                  A_HV.theta_s0_t112
 FR BOUND                  A_HV.theta_s0_t113
 FR BOUND                  A_HV.theta_s0_t114
 FR BOUND                  A_HV.theta_s0_t115
 FR BOUND                  A_HV.theta_s0_t116
 FR BOUND                  A_HV.theta_s0_t117
 FR BOUND                  A_HV.theta_s0_t118
 FR BOUND                  A_HV.theta_s0_t119
 FR BOUND                  A_HV.theta_s0_t120
 FR BOUND                  A_HV.theta_s0_t121
 FR BOUND                  A_HV.theta_s0_t122
 FR BOUND                  A_HV.theta_s0_t123
 FR BOUND                  A_HV.theta_s0_t124
 FR BOUND                  A_HV.theta_s0_t125
 FR BOUND                  A_HV.theta_s0_t126
 FR BOUND                  A_HV.theta_s0_t127
 FR BOUND                  A_HV.theta_s0_t128
 FR BOUND                  A_HV.theta_s0_t129
 FR BOUND                  A_HV.theta_s0_t130
 FR BOUND                  A_HV.theta_s0_t131
 FR BOUND                  A_HV.theta_s0_t132
 FR BOUND                  A_HV.theta_s0_t133
 FR BOUND                  A_HV.theta_s0_t134
 FR BOUND                  A_HV.theta_s0_t135
 FR BOUND                  A_HV.theta_s0_t136
 FR BOUND                  A_HV.theta_s0_t137
 FR BOUND                  A_HV.theta_s0_t138
 FR BOUND                  A_HV.theta_s0_t139
 FR BOUND                  A_HV.theta_s0_t140
 FR BOUND                  A_HV.theta_s0_t141
 FR BOUND                  A_HV.theta_s0_t142
 FR BOUND                  A_HV.theta_s0_t143
 FR BOUND                  A_HV.theta_s0_t144
 FR BOUND                  A_HV.theta_s0_t145
 FR BOUND                  A_HV.theta_s0_t146
 FR BOUND                  A_HV.theta_s0_t147
 FR BOUND                  A_HV.theta_s0_t148
 FR BOUND                  A_HV.theta_s0_t149
 FR BOUND                  A_HV.theta_s0_t150
 FR BOUND                  A_HV.theta_s0_t151
 FR BOUND                  A_HV.theta_s0_t152
 FR BOUND                  A_HV.theta_s0_t153
 FR BOUND                  A_HV.theta_s0_t154
 FR BOUND                  A_HV.theta_s0_t155
 FR BOUND                  A_HV.theta_s0_t156
 FR BOUND                  A_HV.theta_s0_t157
 FR BOUND                  A_HV.theta_s0_t158
 FR BOUND                  A_HV.theta_s0_t159
 FR BOUND                  A_HV.theta_s0_t160
 FR BOUND                  A_HV.theta_s0_t161
 FR BOUND                  A_HV.theta_s0_t162
 FR BOUND                  A_HV.theta_s0_t163
 FR BOUND                  A_HV.theta_s0_t164
 FR BOUND                  A_HV.theta_s0_t165
 FR BOUND                  A_HV.theta_s0_t166
 FR BOUND                  A_HV.theta_s0_t167
 FR BOUND                  B_LV.theta_s0_t0
 FR BOUND                  B_LV.theta_s0_t1
 FR BOUND                  B_LV.theta_s0_t2
 FR BOUND                  B_LV.theta_s0_t3
 FR BOUND                  B_LV.theta_s0_t4
 FR BOUND                  B_LV.theta_s0_t5
 FR BOUND                  B_LV.theta_s0_t6
 FR BOUND                  B_LV.theta_s0_t7
 FR BOUND                  B_LV.theta_s0_t8
 FR BOUND                  B_LV.theta_s0_t9
 FR BOUND                  B_LV.theta_s0_t10
 FR BOUND                  B_LV.theta_s0_t11
 FR BOUND                  B_LV.theta_s0_t12
 FR BOUND                  B_LV.theta_s0_t13
 FR BOUND                  B_LV.theta_s0_t14
 FR BOUND                  B_LV.theta_s0_t15
 FR BOUND                  B_LV.theta_s0_t16
 FR BOUND                  B_LV.theta_s0_t17
 FR BOUND                  B_LV.theta_s0_t18
 FR BOUND                  B_LV.theta_s0_t19
 FR BOUND                  B_LV.theta_s0_t20
 FR BOUND                  B_LV.theta_s0_t21
 FR BOUND                  B_LV.theta_s0_t22
 FR BOUND                  B_LV.theta_s0_t23
 FR BOUND                  B_LV.theta_s0_t24
 FR BOUND                  B_LV.theta_s0_t25
 FR BOUND                  B_LV.theta_s0_t26
 FR BOUND                  B_LV.theta_s0_t27
 FR BOUND                  B_LV.theta_s0_t28
 FR BOUND                  B_LV.theta_s0_t29
 FR BOUND                  B_LV.theta_s0_t30
 FR BOUND                  B_LV.theta_s0_t31
 FR BOUND                  B_LV.theta_s0_t32
 FR BOUND                  B_LV.theta_s0_t33
 FR BOUND                  B_LV.theta_s0_t34
 FR BOUND                  B_LV.theta_s0_t35
 FR BOUND                  B_LV.theta_s0_t36
 FR BOUND                  B_LV.theta_s0_t37
 FR BOUND                  B_LV.theta_s0_t38
 FR BOUND                  B_LV.theta_s0_t39
 FR BOUND                  B_LV.theta_s0_t40
 FR BOUND                  B_LV.theta_s0_t41
 FR BOUND                  B_LV.theta_s0_t42
 FR BOUND                  B_LV.theta_s0_t43
 FR BOUND                  B_LV.theta_s0_t44
 FR BOUND                  B_LV.theta_s0_t45
 FR BOUND                  B_LV.theta_s0_t46
 FR BOUND                  B_LV.theta_s0_t47
 FR BOUND                  B_LV.theta_s0_t48
 FR BOUND                  B_LV.theta_s0_t49
 FR BOUND                  B_LV.theta_s0_t50
 FR BOUND                  B_LV.theta_s0_t51
 FR BOUND                  B_LV.theta_s0_t52
 FR BOUND                  B_LV.theta_s0_t53
 FR BOUND                  B_LV.theta_s0_t54
 FR BOUND                  B_LV.theta_s0_t55
 FR BOUND                  B_LV.theta_s0_t56
 FR BOUND                  B_LV.theta_s0_t57
 FR BOUND                  B_LV.theta_s0_t58
 FR BOUND                  B_LV.theta_s0_t59
 FR BOUND                  B_LV.theta_s0_t60
 FR BOUND                  B_LV.theta_s0_t61
 FR BOUND                  B_LV.theta_s0_t62
 FR BOUND                  B_LV.theta_s0_t63
 FR BOUND                  B_LV.theta_s0_t64
 FR BOUND                  B_LV.theta_s0_t65
 FR BOUND                  B_LV.theta_s0_t66
 FR BOUND                  B_LV.theta_s0_t67
 FR BOUND                  B_LV.theta_s0_t68
 FR BOUND                  B_LV.theta_s0_t69
 FR BOUND                  B_LV.theta_s0_t70
 FR BOUND                  B_LV.theta_s0_t71
 FR BOUND                  B_LV.theta_s0_t72
 FR BOUND                  B_LV.theta_s0_t73
 FR BOUND                  B_LV.theta_s0_t74
 FR BOUND                  B_LV.theta_s0_t75
 FR BOUND                  B_LV.theta_s0_t76
 FR BOUND                  B_LV.theta_s0_t77
 FR BOUND                  B_LV.theta_s0_t78
 FR BOUND                  B_LV.theta_s0_t79
 FR BOUND                  B_LV.theta_s0_t80
 FR BOUND                  B_LV.theta_s0_t81
 FR BOUND                  B_LV.theta_s0_t82
 FR BOUND                  B_LV.theta_s0_t83
 FR BOUND                  B_LV.theta_s0_t84
 FR BOUND                  B_LV.theta_s0_t85
 FR BOUND                  B_LV.theta_s0_t86
 FR BOUND                  B_LV.theta_s0_t87
 FR BOUND                  B_LV.theta_s0_t88
 FR BOUND                  B_LV.theta_s0_t89
 FR BOUND                  B_LV.theta_s0_t90
 FR BOUND                  B_LV.theta_s0_t91
 FR BOUND                  B_LV.theta_s0_t92
 FR BOUND                  B_LV.theta_s0_t93
 FR BOUND                  B_LV.theta_s0_t94
 FR BOUND                  B_LV.theta_s0_t95
 FR BOUND                  B_LV.theta_s0_t96
 FR BOUND                  B_LV.theta_s0_t97
 FR BOUND                  B_LV.theta_s0_t98
 FR BOUND                  B_LV.theta_s0_t99
 FR BOUND                  B_LV.theta_s0_t100
 FR BOUND                  B_LV.theta_s0_t101
 FR BOUND                  B_LV.theta_s0_t102
 FR BOUND                  B_LV.theta_s0_t103
 FR BOUND                  B_LV.theta_s0_t104
 FR BOUND                  B_LV.theta_s0_t105
 FR BOUND                  B_LV.theta_s0_t106
 FR BOUND                  B_LV.theta_s0_t107
 FR BOUND                  B_LV.theta_s0_t108
 FR BOUND                  B_LV.theta_s0_t109
 FR BOUND                  B_LV.theta_s0_t110
 FR BOUND                  B_LV.theta_s0_t111
 FR BOUND                  B_LV.theta_s0_t112
 FR BOUND                  B_LV.theta_s0_t113
 FR BOUND                  B_LV.theta_s0_t114
 FR BOUND                  B_LV.theta_s0_t115
 FR BOUND                  B_LV.theta_s0_t116
 FR BOUND                  B_LV.theta_s0_t117
 FR BOUND                  B_LV.theta_s0_t118
 FR BOUND                  B_LV.theta_s0_t119
 FR BOUND                  B_LV.theta_s0_t120
 FR BOUND                  B_LV.theta_s0_t121
 FR BOUND                  B_LV.theta_s0_t122
 FR BOUND                  B_LV.theta_s0_t123
 FR BOUND                  B_LV.theta_s0_t124
 FR BOUND                  B_LV.theta_s0_t125
 FR BOUND                  B_LV.theta_s0_t126
 FR BOUND                  B_LV.theta_s0_t127
 FR BOUND                  B_LV.theta_s0_t128
 FR BOUND                  B_LV.theta_s0_t129
 FR BOUND                  B_LV.theta_s0_t130
 FR BOUND                  B_LV.theta_s0_t131
 FR BOUND                  B_LV.theta_s0_t132
 FR BOUND                  B_LV.theta_s0_t133
 FR BOUND                  B_LV.theta_s0_t134
 FR BOUND                  B_LV.theta_s0_t135
 FR BOUND                  B_LV.theta_s0_t136
 FR BOUND                  B_LV.theta_s0_t137
 FR BOUND                  B_LV.theta_s0_t138
 FR BOUND                  B_LV.theta_s0_t139
 FR BOUND                  B_LV.theta_s0_t140
 FR BOUND                  B_LV.theta_s0_t141
 FR BOUND                  B_LV.theta_s0_t142
 FR BOUND                  B_LV.theta_s0_t143
 FR BOUND                  B_LV.theta_s0_t144
 FR BOUND                  B_LV.theta_s0_t145
 FR BOUND                  B_LV.theta_s0_t146
 FR BOUND                  B_LV.theta_s0_t147
 FR BOUND                  B_LV.theta_s0_t148
 FR BOUND                  B_LV.theta_s0_t149
 FR BOUND                  B_LV.theta_s0_t150
 FR BOUND                  B_LV.theta_s0_t151
 FR BOUND                  B_LV.theta_s0_t152
 FR BOUND                  B_LV.theta_s0_t153
 FR BOUND                  B_LV.theta_s0_t154
 FR BOUND                  B_LV.theta_s0_t155
 FR BOUND                  B_LV.theta_s0_t156
 FR BOUND                  B_LV.theta_s0_t157
 FR BOUND                  B_LV.theta_s0_t158
 FR BOUND                  B_LV.theta_s0_t159
 FR BOUND                  B_LV.theta_s0_t160
 FR BOUND                  B_LV.theta_s0_t161
 FR BOUND                  B_LV.theta_s0_t162
 FR BOUND                  B_LV.theta_s0_t163
 FR BOUND                  B_LV.theta_s0_t164
 FR BOUND                  B_LV.theta_s0_t165
 FR BOUND                  B_LV.theta_s0_t166
 FR BOUND                  B_LV.theta_s0_t167
 FR BOUND                  C_LV.theta_s0_t0
 FR BOUND                  C_LV.theta_s0_t1
 FR BOUND                  C_LV.theta_s0_t2
 FR BOUND                  C_LV.theta_s0_t3
 FR BOUND                  C_LV.theta_s0_t4
 FR BOUND                  C_LV.theta_s0_t5
 FR BOUND                  C_LV.theta_s0_t6
 FR BOUND                  C_LV.theta_s0_t7
 FR BOUND                  C_LV.theta_s0_t8
 FR BOUND                  C_LV.theta_s0_t9
 FR BOUND                  C_LV.theta_s0_t10
 FR BOUND                  C_LV.theta_s0_t11
 FR BOUND                  C_LV.theta_s0_t12
 FR BOUND                  C_LV.theta_s0_t13
 FR BOUND                  C_LV.theta_s0_t14
 FR BOUND                  C_LV.theta_s0_t15
 FR BOUND                  C_LV.theta_s0_t16
 FR BOUND                  C_LV.theta_s0_t17
 FR BOUND                  C_LV.theta_s0_t18
 FR BOUND                  C_LV.theta_s0_t19
 FR BOUND                  C_LV.theta_s0_t20
 FR BOUND                  C_LV.theta_s0_t21
 FR BOUND                  C_LV.theta_s0_t22
 FR BOUND                  C_LV.theta_s0_t23
 FR BOUND                  C_LV.theta_s0_t24
 FR BOUND                  C_LV.theta_s0_t25
 FR BOUND                  C_LV.theta_s0_t26
 FR BOUND                  C_LV.theta_s0_t27
 FR BOUND                  C_LV.theta_s0_t28
 FR BOUND                  C_LV.theta_s0_t29
 FR BOUND                  C_LV.theta_s0_t30
 FR BOUND                  C_LV.theta_s0_t31
 FR BOUND                  C_LV.theta_s0_t32
 FR BOUND                  C_LV.theta_s0_t33
 FR BOUND                  C_LV.theta_s0_t34
 FR BOUND                  C_LV.theta_s0_t35
 FR BOUND                  C_LV.theta_s0_t36
 FR BOUND                  C_LV.theta_s0_t37
 FR BOUND                  C_LV.theta_s0_t38
 FR BOUND                  C_LV.theta_s0_t39
 FR BOUND                  C_LV.theta_s0_t40
 FR BOUND                  C_LV.theta_s0_t41
 FR BOUND                  C_LV.theta_s0_t42
 FR BOUND                  C_LV.theta_s0_t43
 FR BOUND                  C_LV.theta_s0_t44
 FR BOUND                  C_LV.theta_s0_t45
 FR BOUND                  C_LV.theta_s0_t46
 FR BOUND                  C_LV.theta_s0_t47
 FR BOUND                  C_LV.theta_s0_t48
 FR BOUND                  C_LV.theta_s0_t49
 FR BOUND                  C_LV.theta_s0_t50
 FR BOUND                  C_LV.theta_s0_t51
 FR BOUND                  C_LV.theta_s0_t52
 FR BOUND                  C_LV.theta_s0_t53
 FR BOUND                  C_LV.theta_s0_t54
 FR BOUND                  C_LV.theta_s0_t55
 FR BOUND                  C_LV.theta_s0_t56
 FR BOUND                  C_LV.theta_s0_t57
 FR BOUND                  C_LV.theta_s0_t58
 FR BOUND                  C_LV.theta_s0_t59
 FR BOUND                  C_LV.theta_s0_t60
 FR BOUND                  C_LV.theta_s0_t61
 FR BOUND                  C_LV.theta_s0_t62
 FR BOUND                  C_LV.theta_s0_t63
 FR BOUND                  C_LV.theta_s0_t64
 FR BOUND                  C_LV.theta_s0_t65
 FR BOUND                  C_LV.theta_s0_t66
 FR BOUND                  C_LV.theta_s0_t67
 FR BOUND                  C_LV.theta_s0_t68
 FR BOUND                  C_LV.theta_s0_t69
 FR BOUND                  C_LV.theta_s0_t70
 FR BOUND                  C_LV.theta_s0_t71
 FR BOUND                  C_LV.theta_s0_t72
 FR BOUND                  C_LV.theta_s0_t73
 FR BOUND                  C_LV.theta_s0_t74
 FR BOUND                  C_LV.theta_s0_t75
 FR BOUND                  C_LV.theta_s0_t76
 FR BOUND                  C_LV.theta_s0_t77
 FR BOUND                  C_LV.theta_s0_t78
 FR BOUND                  C_LV.theta_s0_t79
 FR BOUND                  C_LV.theta_s0_t80
 FR BOUND                  C_LV.theta_s0_t81
 FR BOUND                  C_LV.theta_s0_t82
 FR BOUND                  C_LV.theta_s0_t83
 FR BOUND                  C_LV.theta_s0_t84
 FR BOUND                  C_LV.theta_s0_t85
 FR BOUND                  C_LV.theta_s0_t86
 FR BOUND                  C_LV.theta_s0_t87
 FR BOUND                  C_LV.theta_s0_t88
 FR BOUND                  C_LV.theta_s0_t89
 FR BOUND                  C_LV.theta_s0_t90
 FR BOUND                  C_LV.theta_s0_t91
 FR BOUND                  C_LV.theta_s0_t92
 FR BOUND                  C_LV.theta_s0_t93
 FR BOUND                  C_LV.theta_s0_t94
 FR BOUND                  C_LV.theta_s0_t95
 FR BOUND                  C_LV.theta_s0_t96
 FR BOUND                  C_LV.theta_s0_t97
 FR BOUND                  C_LV.theta_s0_t98
 FR BOUND                  C_LV.theta_s0_t99
 FR BOUND                  C_LV.theta_s0_t100
 FR BOUND                  C_LV.theta_s0_t101
 FR BOUND                  C_LV.theta_s0_t102
 FR BOUND                  C_LV.theta_s0_t103
 FR BOUND                  C_LV.theta_s0_t104
 FR BOUND                  C_LV.theta_s0_t105
 FR BOUND                  C_LV.theta_s0_t106
 FR BOUND                  C_LV.theta_s0_t107
 FR BOUND                  C_LV.theta_s0_t108
 FR BOUND                  C_LV.theta_s0_t109
 FR BOUND                  C_LV.theta_s0_t110
 FR BOUND                  C_LV.theta_s0_t111
 FR BOUND                  C_LV.theta_s0_t112
 FR BOUND                  C_LV.theta_s0_t113
 FR BOUND                  C_LV.theta_s0_t114
 FR BOUND                  C_LV.theta_s0_t115
 FR BOUND                  C_LV.theta_s0_t116
 FR BOUND                  C_LV.theta_s0_t117
 FR BOUND                  C_LV.theta_s0_t118
 FR BOUND                  C_LV.theta_s0_t119
 FR BOUND                  C_LV.theta_s0_t120
 FR BOUND                  C_LV.theta_s0_t121
 FR BOUND                  C_LV.theta_s0_t122
 FR BOUND                  C_LV.theta_s0_t123
 FR BOUND                  C_LV.theta_s0_t124
 FR BOUND                  C_LV.theta_s0_t125
 FR BOUND                  C_LV.theta_s0_t126
 FR BOUND                  C_LV.theta_s0_t127
 FR BOUND                  C_LV.theta_s0_t128
 FR BOUND                  C_LV.theta_s0_t129
 FR BOUND                  C_LV.theta_s0_t130
 FR BOUND                  C_LV.theta_s0_t131
 FR BOUND                  C_LV.theta_s0_t132
 FR BOUND                  C_LV.theta_s0_t133
 FR BOUND                  C_LV.theta_s0_t134
 FR BOUND                  C_LV.theta_s0_t135
 FR BOUND                  C_LV.theta_s0_t136
 FR BOUND                  C_LV.theta_s0_t137
 FR BOUND                  C_LV.theta_s0_t138
 FR BOUND                  C_LV.theta_s0_t139
 FR BOUND                  C_LV.theta_s0_t140
 FR BOUND                  C_LV.theta_s0_t141
 FR BOUND                  C_LV.theta_s0_t142
 FR BOUND                  C_LV.theta_s0_t143
 FR BOUND                  C_LV.theta_s0_t144
 FR BOUND                  C_LV.theta_s0_t145
 FR BOUND                  C_LV.theta_s0_t146
 FR BOUND                  C_LV.theta_s0_t147
 FR BOUND                  C_LV.theta_s0_t148
 FR BOUND                  C_LV.theta_s0_t149
 FR BOUND                  C_LV.theta_s0_t150
 FR BOUND                  C_LV.theta_s0_t151
 FR BOUND                  C_LV.theta_s0_t152
 FR BOUND                  C_LV.theta_s0_t153
 FR BOUND                  C_LV.theta_s0_t154
 FR BOUND                  C_LV.theta_s0_t155
 FR BOUND                  C_LV.theta_s0_t156
 FR BOUND                  C_LV.theta_s0_t157
 FR BOUND                  C_LV.theta_s0_t158
 FR BOUND                  C_LV.theta_s0_t159
 FR BOUND                  C_LV.theta_s0_t160
 FR BOUND                  C_LV.theta_s0_t161
 FR BOUND                  C_LV.theta_s0_t162
 FR BOUND                  C_LV.theta_s0_t163
 FR BOUND                  C_LV.theta_s0_t164
 FR BOUND                  C_LV.theta_s0_t165
 FR BOUND                  C_LV.theta_s0_t166
 FR BOUND                  C_LV.theta_s0_t167
 FX BOUND                  G_A.p_nom                  200
 FR BOUND                  G_A.p_s0_t0
 FR BOUND                  G_A.p_s0_t1
 FR BOUND                  G_A.p_s0_t2
 FR BOUND                  G_A.p_s0_t3
 FR BOUND                  G_A.p_s0_t4
 FR BOUND                  G_A.p_s0_t5
 FR BOUND                  G_A.p_s0_t6
 FR BOUND                  G_A.p_s0_t7
 FR BOUND                  G_A.p_s0_t8
 FR BOUND                  G_A.p_s0_t9
 FR BOUND                  G_A.p_s0_t10
 FR BOUND                  G_A.p_s0_t11
 FR BOUND                  G_A.p_s0_t12
 FR BOUND                  G_A.p_s0_t13
 FR BOUND                  G_A.p_s0_t14
 FR BOUND                  G_A.p_s0_t15
 FR BOUND                  G_A.p_s0_t16
 FR BOUND                  G_A.p_s0_t17
 FR BOUND                  G_A.p_s0_t18
 FR BOUND                  G_A.p_s0_t19
 FR BOUND                  G_A.p_s0_t20
 FR BOUND                  G_A.p_s0_t21
 FR BOUND                  G_A.p_s0_t22
 FR BOUND                  G_A.p_s0_t23
 FR BOUND                  G_A.p_s0_t24
 FR BOUND                  G_A.p_s0_t25
 FR BOUND                  G_A.p_s0_t26
 FR BOUND                  G_A.p_s0_t27
 FR BOUND                  G_A.p_s0_t28
 FR BOUND                  G_A.p_s0_t29
 FR BOUND                  G_A.p_s0_t30
 FR BOUND                  G_A.p_s0_t31
 FR BOUND                  G_A.p_s0_t32
 FR BOUND                  G_A.p_s0_t33
 FR BOUND                  G_A.p_s0_t34
 FR BOUND                  G_A.p_s0_t35
 FR BOUND                  G_A.p_s0_t36
 FR BOUND                  G_A.p_s0_t37
 FR BOUND                  G_A.p_s0_t38
 FR BOUND                  G_A.p_s0_t39
 FR BOUND                  G_A.p_s0_t40
 FR BOUND                  G_A.p_s0_t41
 FR BOUND                  G_A.p_s0_t42
 FR BOUND                  G_A.p_s0_t43
 FR BOUND                  G_A.p_s0_t44
 FR BOUND                  G_A.p_s0_t45
 FR BOUND                  G_A.p_s0_t46
 FR BOUND                  G_A.p_s0_t47
 FR BOUND                  G_A.p_s0_t48
 FR BOUND                  G_A.p_s0_t49
 FR BOUND                  G_A.p_s0_t50
 FR BOUND                  G_A.p_s0_t51
 FR BOUND                  G_A.p_s0_t52
 FR BOUND                  G_A.p_s0_t53
 FR BOUND                  G_A.p_s0_t54
 FR BOUND                  G_A.p_s0_t55
 FR BOUND                  G_A.p_s0_t56
 FR BOUND                  G_A.p_s0_t57
 FR BOUND                  G_A.p_s0_t58
 FR BOUND                  G_A.p_s0_t59
 FR BOUND                  G_A.p_s0_t60
 FR BOUND                  G_A.p_s0_t61
 FR BOUND                  G_A.p_s0_t62
 FR BOUND                  G_A.p_s0_t63
 FR BOUND                  G_A.p_s0_t64
 FR BOUND                  G_A.p_s0_t65
 FR BOUND                  G_A.p_s0_t66
 FR BOUND                  G_A.p_s0_t67
 FR BOUND                  G_A.p_s0_t68
 FR BOUND                  G_A.p_s0_t69
 FR BOUND                  G_A.p_s0_t70
 FR BOUND                  G_A.p_s0_t71
 FR BOUND                  G_A.p_s0_t72
 FR BOUND                  G_A.p_s0_t73
 FR BOUND                  G_A.p_s0_t74
 FR BOUND                  G_A.p_s0_t75
 FR BOUND                  G_A.p_s0_t76
 FR BOUND                  G_A.p_s0_t77
 FR BOUND                  G_A.p_s0_t78
 FR BOUND                  G_A.p_s0_t79
 FR BOUND                  G_A.p_s0_t80
 FR BOUND                  G_A.p_s0_t81
 FR BOUND                  G_A.p_s0_t82
 FR BOUND                  G_A.p_s0_t83
 FR BOUND                  G_A.p_s0_t84
 FR BOUND                  G_A.p_s0_t85
 FR BOUND                  G_A.p_s0_t86
 FR BOUND                  G_A.p_s0_t87
 FR BOUND                  G_A.p_s0_t88
 FR BOUND                  G_A.p_s0_t89
 FR BOUND                  G_A.p_s0_t90
 FR BOUND                  G_A.p_s0_t91
 FR BOUND                  G_A.p_s0_t92
 FR BOUND                  G_A.p_s0_t93
 FR BOUND                  G_A.p_s0_t94
 FR BOUND                  G_A.p_s0_t95
 FR BOUND                  G_A.p_s0_t96
 FR BOUND                  G_A.p_s0_t97
 FR BOUND                  G_A.p_s0_t98
 FR BOUND                  G_A.p_s0_t99
 FR BOUND                  G_A.p_s0_t100
 FR BOUND                  G_A.p_s0_t101
 FR BOUND                  G_A.p_s0_t102
 FR BOUND                  G_A.p_s0_t103
 FR BOUND                  G_A.p_s0_t104
 FR BOUND                  G_A.p_s0_t105
 FR BOUND                  G_A.p_s0_t106
 FR BOUND                  G_A.p_s0_t107
 FR BOUND                  G_A.p_s0_t108
 FR BOUND                  G_A.p_s0_t109
 FR BOUND                  G_A.p_s0_t110
 FR BOUND                  G_A.p_s0_t111
 FR BOUND                  G_A.p_s0_t112
 FR BOUND                  G_A.p_s0_t113
 FR BOUND                  G_A.p_s0_t114
 FR BOUND                  G_A.p_s0_t115
 FR BOUND                  G_A.p_s0_t116
 FR BOUND                  G_A.p_s0_t117
 FR BOUND                  G_A.p_s0_t118
 FR BOUND                  G_A.p_s0_t119
 FR BOUND                  G_A.p_s0_t120
 FR BOUND                  G_A.p_s0_t121
 FR BOUND                  G_A.p_s0_t122
 FR BOUND                  G_A.p_s0_t123
 FR BOUND                  G_A.p_s0_t124
 FR BOUND                  G_A.p_s0_t125
 FR BOUND                  G_A.p_s0_t126
 FR BOUND                  G_A.p_s0_t127
 FR BOUND                  G_A.p_s0_t128
 FR BOUND                  G_A.p_s0_t129
 FR BOUND                  G_A.p_s0_t130
 FR BOUND                  G_A.p_s0_t131
 FR BOUND                  G_A.p_s0_t132
 FR BOUND                  G_A.p_s0_t133
 FR BOUND                  G_A.p_s0_t134
 FR BOUND                  G_A.p_s0_t135
 FR BOUND                  G_A.p_s0_t136
 FR BOUND                  G_A.p_s0_t137
 FR BOUND                  G_A.p_s0_t138
 FR BOUND                  G_A.p_s0_t139
 FR BOUND                  G_A.p_s0_t140
 FR BOUND                  G_A.p_s0_t141
 FR BOUND                  G_A.p_s0_t142
 FR BOUND                  G_A.p_s0_t143
 FR BOUND                  G_A.p_s0_t144
 FR BOUND                  G_A.p_s0_t145
 FR BOUND                  G_A.p_s0_t146
 FR BOUND                  G_A.p_s0_t147
 FR BOUND                  G_A.p_s0_t148
 FR BOUND                  G_A.p_s0_t149
 FR BOUND                  G_A.p_s0_t150
 FR BOUND                  G_A.p_s0_t151
 FR BOUND                  G_A.p_s0_t152
 FR BOUND                  G_A.p_s0_t153
 FR BOUND                  G_A.p_s0_t154
 FR BOUND                  G_A.p_s0_t155
 FR BOUND                  G_A.p_s0_t156
 FR BOUND                  G_A.p_s0_t157
 FR BOUND                  G_A.p_s0_t158
 FR BOUND                  G_A.p_s0_t159
 FR BOUND                  G_A.p_s0_t160
 FR BOUND                  G_A.p_s0_t161
 FR BOUND                  G_A.p_s0_t162
 FR BOUND                  G_A.p_s0_t163
 FR BOUND                  G_A.p_s0_t164
 FR BOUND                  G_A.p_s0_t165
 FR BOUND                  G_A.p_s0_t166
 FR BOUND                  G_A.p_s0_t167
 FX BOUND                  G_C.p_nom                   50
 FR BOUND                  G_C.p_s0_t0
 FR BOUND                  G_C.p_s0_t1
 FR BOUND                  G_C.p_s0_t2
 FR BOUND                  G_C.p_s0_t3
 FR BOUND                  G_C.p_s0_t4
 FR BOUND                  G_C.p_s0_t5
 FR BOUND                  G_C.p_s0_t6
 FR BOUND                  G_C.p_s0_t7
 FR BOUND                  G_C.p_s0_t8
 FR BOUND                  G_C.p_s0_t9
 FR BOUND                  G_C.p_s0_t10
 FR BOUND                  G_C.p_s0_t11
 FR BOUND                  G_C.p_s0_t12
 FR BOUND                  G_C.p_s0_t13
 FR BOUND                  G_C.p_s0_t14
 FR BOUND                  G_C.p_s0_t15
 FR BOUND                  G_C.p_s0_t16
 FR BOUND                  G_C.p_s0_t17
 FR BOUND                  G_C.p_s0_t18
 FR BOUND                  G_C.p_s0_t19
 FR BOUND                  G_C.p_s0_t20
 FR BOUND                  G_C.p_s0_t21
 FR BOUND                  G_C.p_s0_t22
 FR BOUND                  G_C.p_s0_t23
 FR BOUND                  G_C.p_s0_t24
 FR BOUND                  G_C.p_s0_t25
 FR BOUND                  G_C.p_s0_t26
 FR BOUND                  G_C.p_s0_t27
 FR BOUND                  G_C.p_s0_t28
 FR BOUND                  G_C.p_s0_t29
 FR BOUND                  G_C.p_s0_t30
 FR BOUND                  G_C.p_s0_t31
 FR BOUND                  G_C.p_s0_t32
 FR BOUND                  G_C.p_s0_t33
 FR BOUND                  G_C.p_s0_t34
 FR BOUND                  G_C.p_s0_t35
 FR BOUND                  G_C.p_s0_t36
 FR BOUND                  G_C.p_s0_t37
 FR BOUND                  G_C.p_s0_t38
 FR BOUND                  G_C.p_s0_t39
 FR BOUND                  G_C.p_s0_t40
 FR BOUND                  G_C.p_s0_t41
 FR BOUND                  G_C.p_s0_t42
 FR BOUND                  G_C.p_s0_t43
 FR BOUND                  G_C.p_s0_t44
 FR BOUND                  G_C.p_s0_t45
 FR BOUND                  G_C.p_s0_t46
 FR BOUND                  G_C.p_s0_t47
 FR BOUND                  G_C.p_s0_t48
 FR BOUND                  G_C.p_s0_t49
 FR BOUND                  G_C.p_s0_t50
 FR BOUND                  G_C.p_s0_t51
 FR BOUND                  G_C.p_s0_t52
 FR BOUND                  G_C.p_s0_t53
 FR BOUND                  G_C.p_s0_t54
 FR BOUND                  G_C.p_s0_t55
 FR BOUND                  G_C.p_s0_t56
 FR BOUND                  G_C.p_s0_t57
 FR BOUND                  G_C.p_s0_t58
 FR BOUND                  G_C.p_s0_t59
 FR BOUND                  G_C.p_s0_t60
 FR BOUND                  G_C.p_s0_t61
 FR BOUND                  G_C.p_s0_t62
 FR BOUND                  G_C.p_s0_t63
 FR BOUND                  G_C.p_s0_t64
 FR BOUND                  G_C.p_s0_t65
 FR BOUND                  G_C.p_s0_t66
 FR BOUND                  G_C.p_s0_t67
 FR BOUND                  G_C.p_s0_t68
 FR BOUND                  G_C.p_s0_t69
 FR BOUND                  G_C.p_s0_t70
 FR BOUND                  G_C.p_s0_t71
 FR BOUND                  G_C.p_s0_t72
 FR BOUND                  G_C.p_s0_t73
 FR BOUND                  G_C.p_s0_t74
 FR BOUND                  G_C.p_s0_t75
 FR BOUND                  G_C.p_s0_t76
 FR BOUND                  G_C.p_s0_t77
 FR BOUND                  G_C.p_s0_t78
 FR BOUND                  G_C.p_s0_t79
 FR BOUND                  G_C.p_s0_t80
 FR BOUND                  G_C.p_s0_t81
 FR BOUND                  G_C.p_s0_t82
 FR BOUND                  G_C.p_s0_t83
 FR BOUND                  G_C.p_s0_t84
 FR BOUND                  G_C.p_s0_t85
 FR BOUND                  G_C.p_s0_t86
 FR BOUND                  G_C.p_s0_t87
 FR BOUND                  G_C.p_s0_t88
 FR BOUND                  G_C.p_s0_t89
 FR BOUND                  G_C.p_s0_t90
 FR BOUND                  G_C.p_s0_t91
 FR BOUND                  G_C.p_s0_t92
 FR BOUND                  G_C.p_s0_t93
 FR BOUND                  G_C.p_s0_t94
 FR BOUND                  G_C.p_s0_t95
 FR BOUND                  G_C.p_s0_t96
 FR BOUND                  G_C.p_s0_t97
 FR BOUND                  G_C.p_s0_t98
 FR BOUND                  G_C.p_s0_t99
 FR BOUND                  G_C.p_s0_t100
 FR BOUND                  G_C.p_s0_t101
 FR BOUND                  G_C.p_s0_t102
 FR BOUND                  G_C.p_s0_t103
 FR BOUND                  G_C.p_s0_t104
 FR BOUND                  G_C.p_s0_t105
 FR BOUND                  G_C.p_s0_t106
 FR BOUND                  G_C.p_s0_t107
 FR BOUND                  G_C.p_s0_t108
 FR BOUND                  G_C.p_s0_t109
 FR BOUND                  G_C.p_s0_t110
 FR BOUND                  G_C.p_s0_t111
 FR BOUND                  G_C.p_s0_t112
 FR BOUND                  G_C.p_s0_t113
 FR BOUND                  G_C.p_s0_t114
 FR BOUND                  G_C.p_s0_t115
 FR BOUND                  G_C.p_s0_t116
 FR BOUND                  G_C.p_s0_t117
 FR BOUND                  G_C.p_s0_t118
 FR BOUND                  G_C.p_s0_t119
 FR BOUND                  G_C.p_s0_t120
 FR BOUND                  G_C.p_s0_t121
 FR BOUND                  G_C.p_s0_t122
 FR BOUND                  G_C.p_s0_t123
 FR BOUND                  G_C.p_s0_t124
 FR BOUND                  G_C.p_s0_t125
 FR BOUND                  G_C.p_s0_t126
 FR BOUND                  G_C.p_s0_t127
 FR BOUND                  G_C.p_s0_t128
 FR BOUND                  G_C.p_s0_t129
 FR BOUND                  G_C.p_s0_t130
 FR BOUND                  G_C.p_s0_t131
 FR BOUND                  G_C.p_s0_t132
 FR BOUND                  G_C.p_s0_t133
 FR BOUND                  G_C.p_s0_t134
 FR BOUND                  G_C.p_s0_t135
 FR BOUND                  G_C.p_s0_t136
 FR BOUND                  G_C.p_s0_t137
 FR BOUND                  G_C.p_s0_t138
 FR BOUND                  G_C.p_s0_t139
 FR BOUND                  G_C.p_s0_t140
 FR BOUND                  G_C.p_s0_t141
 FR BOUND                  G_C.p_s0_t142
 FR BOUND                  G_C.p_s0_t143
 FR BOUND                  G_C.p_s0_t144
 FR BOUND                  G_C.p_s0_t145
 FR BOUND                  G_C.p_s0_t146
 FR BOUND                  G_C.p_s0_t147
 FR BOUND                  G_C.p_s0_t148
 FR BOUND                  G_C.p_s0_t149
 FR BOUND                  G_C.p_s0_t150
 FR BOUND                  G_C.p_s0_t151
 FR BOUND                  G_C.p_s0_t152
 FR BOUND                  G_C.p_s0_t153
 FR BOUND                  G_C.p_s0_t154
 FR BOUND                  G_C.p_s0_t155
 FR BOUND                  G_C.p_s0_t156
 FR BOUND                  G_C.p_s0_t157
 FR BOUND                  G_C.p_s0_t158
 FR BOUND                  G_C.p_s0_t159
 FR BOUND                  G_C.p_s0_t160
 FR BOUND                  G_C.p_s0_t161
 FR BOUND                  G_C.p_s0_t162
 FR BOUND                  G_C.p_s0_t163
 FR BOUND                  G_C.p_s0_t164
 FR BOUND                  G_C.p_s0_t165
 FR BOUND                  G_C.p_s0_t166
 FR BOUND                  G_C.p_s0_t167
 FX BOUND                  T_AB.s_nom_s0_t0           150
 FX BOUND                  T_AB.s_nom_s0_t1           150
 FX BOUND                  T_AB.s_nom_s0_t2           150
 FX BOUND                  T_AB.s_nom_s0_t3           150
 FX BOUND                  T_AB.s_nom_s0_t4           150
 FX BOUND                  T_AB.s_nom_s0_t5           150
 FX BOUND                  T_AB.s_nom_s0_t6           150
 FX BOUND                  T_AB.s_nom_s0_t7           150
 FX BOUND                  T_AB.s_nom_s0_t8           150
 FX BOUND                  T_AB.s_nom_s0_t9           150
 FX BOUND                  T_AB.s_nom_s0_t10          150
 FX BOUND                  T_AB.s_nom_s0_t11          150
 FX BOUND                  T_AB.s_nom_s0_t12          150
 FX BOUND                  T_AB.s_nom_s0_t13          150
 FX BOUND                  T_AB.s_nom_s0_t14          150
 FX BOUND                  T_AB.s_nom_s0_t15          150
 FX BOUND                  T_AB.s_nom_s0_t16          150
 FX BOUND                  T_AB.s_nom_s0_t17          150
 FX BOUND                  T_AB.s_nom_s0_t18          150
 FX BOUND                  T_AB.s_nom_s0_t19          150
 FX BOUND                  T_AB.s_nom_s0_t20          150
 FX BOUND                  T_AB.s_nom_s0_t21          150
 FX BOUND                  T_AB.s_nom_s0_t22          150
 FX BOUND                  T_AB.s_nom_s0_t23          150
 FX BOUND                  T_AB.s_nom_s0_t24          150
 FX BOUND                  T_AB.s_nom_s0_t25          150
 FX BOUND                  T_AB.s_nom_s0_t26          150
 FX BOUND                  T_AB.s_nom_s0_t27          150
 FX BOUND                  T_AB.s_nom_s0_t28          150
 FX BOUND                  T_AB.s_nom_s0_t29          150
 FX BOUND                  T_AB.s_nom_s0_t30          150
 FX BOUND                  T_AB.s_nom_s0_t31          150
 FX BOUND                  T_AB.s_nom_s0_t32          150
 FX BOUND                  T_AB.s_nom_s0_t33          150
 FX BOUND                  T_AB.s_nom_s0_t34          150
 FX BOUND                  T_AB.s_nom_s0_t35          150
 FX BOUND                  T_AB.s_nom_s0_t36          150
 FX BOUND                  T_AB.s_nom_s0_t37          150
 FX BOUND                  T_AB.s_nom_s0_t38          150
 FX BOUND                  T_AB.s_nom_s0_t39          150
 FX BOUND                  T_AB.s_nom_s0_t40          150
 FX BOUND                  T_AB.s_nom_s0_t41          150
 FX BOUND                  T_AB.s_nom_s0_t42          150
 FX BOUND                  T_AB.s_nom_s0_t43          150
 FX BOUND                  T_AB.s_nom_s0_t44          150
 FX BOUND                  T_AB.s_nom_s0_t45          150
 FX BOUND                  T_AB.s_nom_s0_t46          150
 FX BOUND                  T_AB.s_nom_s0_t47          150
 FX BOUND                  T_AB.s_nom_s0_t48          150
 FX BOUND                  T_AB.s_nom_s0_t49          150
 FX BOUND                  T_AB.s_nom_s0_t50          150
 FX BOUND                  T_AB.s_nom_s0_t51          150
 FX BOUND                  T_AB.s_nom_s0_t52          150
 FX BOUND                  T_AB.s_nom_s0_t53          150
 FX BOUND                  T_AB.s_nom_s0_t54          150
 FX BOUND                  T_AB.s_nom_s0_t55          150
 FX BOUND                  T_AB.s_nom_s0_t56          150
 FX BOUND                  T_AB.s_nom_s0_t57          150
 FX BOUND                  T_AB.s_nom_s0_t58          150
 FX BOUND                  T_AB.s_nom_s0_t59          150
 FX BOUND                  T_AB.s_nom_s0_t60          150
 FX BOUND                  T_AB.s_nom_s0_t61          150
 FX BOUND                  T_AB.s_nom_s0_t62          150
 FX BOUND                  T_AB.s_nom_s0_t63          150
 FX BOUND                  T_AB.s_nom_s0_t64          150
 FX BOUND                  T_AB.s_nom_s0_t65          150
 FX BOUND                  T_AB.s_nom_s0_t66          150
 FX BOUND                  T_AB.s_nom_s0_t67          150
 FX BOUND                  T_AB.s_nom_s0_t68          150
 FX BOUND                  T_AB.s_nom_s0_t69          150
 FX BOUND                  T_AB.s_nom_s0_t70          150
 FX BOUND                  T_AB.s_nom_s0_t71          150
 FX BOUND                  T_AB.s_nom_s0_t72          150
 FX BOUND                  T_AB.s_nom_s0_t73          150
 FX BOUND                  T_AB.s_nom_s0_t74          150
 FX BOUND                  T_AB.s_nom_s0_t75          150
 FX BOUND                  T_AB.s_nom_s0_t76          150
 FX BOUND                  T_AB.s_nom_s0_t77          150
 FX BOUND                  T_AB.s_nom_s0_t78          150
 FX BOUND                  T_AB.s_nom_s0_t79          150
 FX BOUND                  T_AB.s_nom_s0_t80          150
 FX BOUND                  T_AB.s_nom_s0_t81          150
 FX BOUND                  T_AB.s_nom_s0_t82          150
 FX BOUND                  T_AB.s_nom_s0_t83          150
 FX BOUND                  T_AB.s_nom_s0_t84          150
 FX BOUND                  T_AB.s_nom_s0_t85          150
 FX BOUND                  T_AB.s_nom_s0_t86          150
 FX BOUND                  T_AB.s_nom_s0_t87          150
 FX BOUND                  T_AB.s_nom_s0_t88          150
 FX BOUND                  T_AB.s_nom_s0_t89          150
 FX BOUND                  T_AB.s_nom_s0_t90          150
 FX BOUND                  T_AB.s_nom_s0_t91          150
 FX BOUND                  T_AB.s_nom_s0_t92          150
 FX BOUND                  T_AB.s_nom_s0_t93          150
 FX BOUND                  T_AB.s_nom_s0_t94          150
 FX BOUND                  T_AB.s_nom_s0_t95          150
 FX BOUND                  T_AB.s_nom_s0_t96          150
 FX BOUND                  T_AB.s_nom_s0_t97          150
 FX BOUND                  T_AB.s_nom_s0_t98          150
 FX BOUND                  T_AB.s_nom_s0_t99          150
 FX BOUND                  T_AB.s_nom_s0_t100         150
 FX BOUND                  T_AB.s_nom_s0_t101         150
 FX BOUND                  T_AB.s_nom_s0_t102         150
 FX BOUND                  T_AB.s_nom_s0_t103         150
 FX BOUND                  T_AB.s_nom_s0_t104         150
 FX BOUND                  T_AB.s_nom_s0_t105         150
 FX BOUND                  T_AB.s_nom_s0_t106         150
 FX BOUND                  T_AB.s_nom_s0_t107         150
 FX BOUND                  T_AB.s_nom_s0_t108         150
 FX BOUND                  T_AB.s_nom_s0_t109         150
 FX BOUND                  T_AB.s_nom_s0_t110         150
 FX BOUND                  T_AB.s_nom_s0_t111         150
 FX BOUND                  T_AB.s_nom_s0_t112         150
 FX BOUND                  T_AB.s_nom_s0_t113         150
 FX BOUND                  T_AB.s_nom_s0_t114         150
 FX BOUND                  T_AB.s_nom_s0_t115         150
 FX BOUND                  T_AB.s_nom_s0_t116         150
 FX BOUND                  T_AB.s_nom_s0_t117         150
 FX BOUND                  T_AB.s_nom_s0_t118         150
 FX BOUND                  T_AB.s_nom_s0_t119         150
 FX BOUND                  T_AB.s_nom_s0_t120         150
 FX BOUND                  T_AB.s_nom_s0_t121         150
 FX BOUND                  T_AB.s_nom_s0_t122         150
 FX BOUND                  T_AB.s_nom_s0_t123         150
 FX BOUND                  T_AB.s_nom_s0_t124         150
 FX BOUND                  T_AB.s_nom_s0_t125         150
 FX BOUND                  T_AB.s_nom_s0_t126         150
 FX BOUND                  T_AB.s_nom_s0_t127         150
 FX BOUND                  T_AB.s_nom_s0_t128         150
 FX BOUND                  T_AB.s_nom_s0_t129         150
 FX BOUND                  T_AB.s_nom_s0_t130         150
 FX BOUND                  T_AB.s_nom_s0_t131         150
 FX BOUND                  T_AB.s_nom_s0_t132         150
 FX BOUND                  T_AB.s_nom_s0_t133         150
 FX BOUND                  T_AB.s_nom_s0_t134         150
 FX BOUND                  T_AB.s_nom_s0_t135         150
 FX BOUND                  T_AB.s_nom_s0_t136         150
 FX BOUND                  T_AB.s_nom_s0_t137         150
 FX BOUND                  T_AB.s_nom_s0_t138         150
 FX BOUND                  T_AB.s_nom_s0_t139         150
 FX BOUND                  T_AB.s_nom_s0_t140         150
 FX BOUND                  T_AB.s_nom_s0_t141         150
 FX BOUND                  T_AB.s_nom_s0_t142         150
 FX BOUND                  T_AB.s_nom_s0_t143         150
 FX BOUND                  T_AB.s_nom_s0_t144         150
 FX BOUND                  T_AB.s_nom_s0_t145         150
 FX BOUND                  T_AB.s_nom_s0_t146         150
 FX BOUND                  T_AB.s_nom_s0_t147         150
 FX BOUND                  T_AB.s_nom_s0_t148         150
 FX BOUND                  T_AB.s_nom_s0_t149         150
 FX BOUND                  T_AB.s_nom_s0_t150         150
 FX BOUND                  T_AB.s_nom_s0_t151         150
 FX BOUND                  T_AB.s_nom_s0_t152         150
 FX BOUND                  T_AB.s_nom_s0_t153         150
 FX BOUND                  T_AB.s_nom_s0_t154         150
 FX BOUND                  T_AB.s_nom_s0_t155         150
 FX BOUND                  T_AB.s_nom_s0_t156         150
 FX BOUND                  T_AB.s_nom_s0_t157         150
 FX BOUND                  T_AB.s_nom_s0_t158         150
 FX BOUND                  T_AB.s_nom_s0_t159         150
 FX BOUND                  T_AB.s_nom_s0_t160         150
 FX BOUND                  T_AB.s_nom_s0_t161         150
 FX BOUND                  T_AB.s_nom_s0_t162         150
 FX BOUND                  T_AB.s_nom_s0_t163         150
 FX BOUND                  T_AB.s_nom_s0_t164         150
 FX BOUND                  T_AB.s_nom_s0_t165         150
 FX BOUND                  T_AB.s_nom_s0_t166         150
 FX BOUND                  T_AB.s_nom_s0_t167         150
 FR BOUND                  T_AB.p0_s0_t0
 FR BOUND                  T_AB.p0_s0_t1
 FR BOUND                  T_AB.p0_s0_t2
 FR BOUND                  T_AB.p0_s0_t3
 FR BOUND                  T_AB.p0_s0_t4
 FR BOUND                  T_AB.p0_s0_t5
 FR BOUND                  T_AB.p0_s0_t6
 FR BOUND                  T_AB.p0_s0_t7
 FR BOUND                  T_AB.p0_s0_t8
 FR BOUND                  T_AB.p0_s0_t9
 FR BOUND                  T_AB.p0_s0_t10
 FR BOUND                  T_AB.p0_s0_t11
 FR BOUND                  T_AB.p0_s0_t12
 FR BOUND                  T_AB.p0_s0_t13
 FR BOUND                  T_AB.p0_s0_t14
 FR BOUND                  T_AB.p0_s0_t15
 FR BOUND                  T_AB.p0_s0_t16
 FR BOUND                  T_AB.p0_s0_t17
 FR BOUND                  T_AB.p0_s0_t18
 FR BOUND                  T_AB.p0_s0_t19
 FR BOUND                  T_AB.p0_s0_t20
 FR BOUND                  T_AB.p0_s0_t21
 FR BOUND                  T_AB.p0_s0_t22
 FR BOUND                  T_AB.p0_s0_t23
 FR BOUND                  T_AB.p0_s0_t24
 FR BOUND                  T_AB.p0_s0_t25
 FR BOUND                  T_AB.p0_s0_t26
 FR BOUND                  T_AB.p0_s0_t27
 FR BOUND                  T_AB.p0_s0_t28
 FR BOUND                  T_AB.p0_s0_t29
 FR BOUND                  T_AB.p0_s0_t30
 FR BOUND                  T_AB.p0_s0_t31
 FR BOUND                  T_AB.p0_s0_t32
 FR BOUND                  T_AB.p0_s0_t33
 FR BOUND                  T_AB.p0_s0_t34
 FR BOUND                  T_AB.p0_s0_t35
 FR BOUND                  T_AB.p0_s0_t36
 FR BOUND                  T_AB.p0_s0_t37
 FR BOUND                  T_AB.p0_s0_t38
 FR BOUND                  T_AB.p0_s0_t39
 FR BOUND                  T_AB.p0_s0_t40
 FR BOUND                  T_AB.p0_s0_t41
 FR BOUND                  T_AB.p0_s0_t42
 FR BOUND                  T_AB.p0_s0_t43
 FR BOUND                  T_AB.p0_s0_t44
 FR BOUND                  T_AB.p0_s0_t45
 FR BOUND                  T_AB.p0_s0_t46
 FR BOUND                  T_AB.p0_s0_t47
 FR BOUND                  T_AB.p0_s0_t48
 FR BOUND                  T_AB.p0_s0_t49
 FR BOUND                  T_AB.p0_s0_t50
 FR BOUND                  T_AB.p0_s0_t51
 FR BOUND                  T_AB.p0_s0_t52
 FR BOUND                  T_AB.p0_s0_t53
 FR BOUND                  T_AB.p0_s0_t54
 FR BOUND                  T_AB.p0_s0_t55
 FR BOUND                  T_AB.p0_s0_t56
 FR BOUND                  T_AB.p0_s0_t57
 FR BOUND                  T_AB.p0_s0_t58
 FR BOUND                  T_AB.p0_s0_t59
 FR BOUND                  T_AB.p0_s0_t60
 FR BOUND                  T_AB.p0_s0_t61
 FR BOUND                  T_AB.p0_s0_t62
 FR BOUND                  T_AB.p0_s0_t63
 FR BOUND                  T_AB.p0_s0_t64
 FR BOUND                  T_AB.p0_s0_t65
 FR BOUND                  T_AB.p0_s0_t66
 FR BOUND                  T_AB.p0_s0_t67
 FR BOUND                  T_AB.p0_s0_t68
 FR BOUND                  T_AB.p0_s0_t69
 FR BOUND                  T_AB.p0_s0_t70
 FR BOUND                  T_AB.p0_s0_t71
 FR BOUND                  T_AB.p0_s0_t72
 FR BOUND                  T_AB.p0_s0_t73
 FR BOUND                  T_AB.p0_s0_t74
 FR BOUND                  T_AB.p0_s0_t75
 FR BOUND                  T_AB.p0_s0_t76
 FR BOUND                  T_AB.p0_s0_t77
 FR BOUND                  T_AB.p0_s0_t78
 FR BOUND                  T_AB.p0_s0_t79
 FR BOUND                  T_AB.p0_s0_t80
 FR BOUND                  T_AB.p0_s0_t81
 FR BOUND                  T_AB.p0_s0_t82
 FR BOUND                  T_AB.p0_s0_t83
 FR BOUND                  T_AB.p0_s0_t84
 FR BOUND                  T_AB.p0_s0_t85
 FR BOUND                  T_AB.p0_s0_t86
 FR BOUND                  T_AB.p0_s0_t87
 FR BOUND                  T_AB.p0_s0_t88
 FR BOUND                  T_AB.p0_s0_t89
 FR BOUND                  T_AB.p0_s0_t90
 FR BOUND                  T_AB.p0_s0_t91
 FR BOUND                  T_AB.p0_s0_t92
 FR BOUND                  T_AB.p0_s0_t93
 FR BOUND                  T_AB.p0_s0_t94
 FR BOUND                  T_AB.p0_s0_t95
 FR BOUND                  T_AB.p0_s0_t96
 FR BOUND                  T_AB.p0_s0_t97
 FR BOUND                  T_AB.p0_s0_t98
 FR BOUND                  T_AB.p0_s0_t99
 FR BOUND                  T_AB.p0_s0_t100
 FR BOUND                  T_AB.p0_s0_t101
 FR BOUND                  T_AB.p0_s0_t102
 FR BOUND                  T_AB.p0_s0_t103
 FR BOUND                  T_AB.p0_s0_t104
 FR BOUND                  T_AB.p0_s0_t105
 FR BOUND                  T_AB.p0_s0_t106
 FR BOUND                  T_AB.p0_s0_t107
 FR BOUND                  T_AB.p0_s0_t108
 FR BOUND                  T_AB.p0_s0_t109
 FR BOUND                  T_AB.p0_s0_t110
 FR BOUND                  T_AB.p0_s0_t111
 FR BOUND                  T_AB.p0_s0_t112
 FR BOUND                  T_AB.p0_s0_t113
 FR BOUND                  T_AB.p0_s0_t114
 FR BOUND                  T_AB.p0_s0_t115
 FR BOUND                  T_AB.p0_s0_t116
 FR BOUND                  T_AB.p0_s0_t117
 FR BOUND                  T_AB.p0_s0_t118
 FR BOUND                  T_AB.p0_s0_t119
 FR BOUND                  T_AB.p0_s0_t120
 FR BOUND                  T_AB.p0_s0_t121
 FR BOUND                  T_AB.p0_s0_t122
 FR BOUND                  T_AB.p0_s0_t123
 FR BOUND                  T_AB.p0_s0_t124
 FR BOUND                  T_AB.p0_s0_t125
 FR BOUND                  T_AB.p0_s0_t126
 FR BOUND                  T_AB.p0_s0_t127
 FR BOUND                  T_AB.p0_s0_t128
 FR BOUND                  T_AB.p0_s0_t129
 FR BOUND                  T_AB.p0_s0_t130
 FR BOUND                  T_AB.p0_s0_t131
 FR BOUND                  T_AB.p0_s0_t132
 FR BOUND                  T_AB.p0_s0_t133
 FR BOUND                  T_AB.p0_s0_t134
 FR BOUND                  T_AB.p0_s0_t135
 FR BOUND                  T_AB.p0_s0_t136
 FR BOUND                  T_AB.p0_s0_t137
 FR BOUND                  T_AB.p0_s0_t138
 FR BOUND                  T_AB.p0_s0_t139
 FR BOUND                  T_AB.p0_s0_t140
 FR BOUND                  T_AB.p0_s0_t141
 FR BOUND                  T_AB.p0_s0_t142
 FR BOUND                  T_AB.p0_s0_t143
 FR BOUND                  T_AB.p0_s0_t144
 FR BOUND                  T_AB.p0_s0_t145
 FR BOUND                  T_AB.p0_s0_t146
 FR BOUND                  T_AB.p0_s0_t147
 FR BOUND                  T_AB.p0_s0_t148
 FR BOUND                  T_AB.p0_s0_t149
 FR BOUND                  T_AB.p0_s0_t150
 FR BOUND                  T_AB.p0_s0_t151
 FR BOUND                  T_AB.p0_s0_t152
 FR BOUND                  T_AB.p0_s0_t153
 FR BOUND                  T_AB.p0_s0_t154
 FR BOUND                  T_AB.p0_s0_t155
 FR BOUND                  T_AB.p0_s0_t156
 FR BOUND                  T_AB.p0_s0_t157
 FR BOUND                  T_AB.p0_s0_t158
 FR BOUND                  T_AB.p0_s0_t159
 FR BOUND                  T_AB.p0_s0_t160
 FR BOUND                  T_AB.p0_s0_t161
 FR BOUND                  T_AB.p0_s0_t162
 FR BOUND                  T_AB.p0_s0_t163
 FR BOUND                  T_AB.p0_s0_t164
 FR BOUND                  T_AB.p0_s0_t165
 FR BOUND                  T_AB.p0_s0_t166
 FR BOUND                  T_AB.p0_s0_t167
 FX BOUND                  BC.s_nom_s0_t0             100
 FX BOUND                  BC.s_nom_s0_t1             100
 FX BOUND                  BC.s_nom_s0_t2             100
 FX BOUND                  BC.s_nom_s0_t3             100
 FX BOUND                  BC.s_nom_s0_t4             100
 FX BOUND                  BC.s_nom_s0_t5             100
 FX BOUND                  BC.s_nom_s0_t6             100
 FX BOUND                  BC.s_nom_s0_t7             100
 FX BOUND                  BC.s_nom_s0_t8             100
 FX BOUND                  BC.s_nom_s0_t9             100
 FX BOUND                  BC.s_nom_s0_t10            100
 FX BOUND                  BC.s_nom_s0_t11            100
 FX BOUND                  BC.s_nom_s0_t12            100
 FX BOUND                  BC.s_nom_s0_t13            100
 FX BOUND                  BC.s_nom_s0_t14            100
 FX BOUND                  BC.s_nom_s0_t15            100
 FX BOUND                  BC.s_nom_s0_t16            100
 FX BOUND                  BC.s_nom_s0_t17            100
 FX BOUND                  BC.s_nom_s0_t18            100
 FX BOUND                  BC.s_nom_s0_t19            100
 FX BOUND                  BC.s_nom_s0_t20            100
 FX BOUND                  BC.s_nom_s0_t21            100
 FX BOUND                  BC.s_nom_s0_t22            100
 FX BOUND                  BC.s_nom_s0_t23            100
 FX BOUND                  BC.s_nom_s0_t24            100
 FX BOUND                  BC.s_nom_s0_t25            100
 FX BOUND                  BC.s_nom_s0_t26            100
 FX BOUND                  BC.s_nom_s0_t27            100
 FX BOUND                  BC.s_nom_s0_t28            100
 FX BOUND                  BC.s_nom_s0_t29            100
 FX BOUND                  BC.s_nom_s0_t30            100
 FX BOUND                  BC.s_nom_s0_t31            100
 FX BOUND                  BC.s_nom_s0_t32            100
 FX BOUND                  BC.s_nom_s0_t33            100
 FX BOUND                  BC.s_nom_s0_t34            100
 FX BOUND                  BC.s_nom_s0_t35            100
 FX BOUND                  BC.s_nom_s0_t36            100
 FX BOUND                  BC.s_nom_s0_t37            100
 FX BOUND                  BC.s_nom_s0_t38            100
 FX BOUND                  BC.s_nom_s0_t39            100
 FX BOUND                  BC.s_nom_s0_t40            100
 FX BOUND                  BC.s_nom_s0_t41            100
 FX BOUND                  BC.s_nom_s0_t42            100
 FX BOUND                  BC.s_nom_s0_t43            100
 FX BOUND                  BC.s_nom_s0_t44            100
 FX BOUND                  BC.s_nom_s0_t45            100
 FX BOUND                  BC.s_nom_s0_t46            100
 FX BOUND                  BC.s_nom_s0_t47            100
 FX BOUND                  BC.s_nom_s0_t48            100
 FX BOUND                  BC.s_nom_s0_t49            100
 FX BOUND                  BC.s_nom_s0_t50            100
 FX BOUND                  BC.s_nom_s0_t51            100
 FX BOUND                  BC.s_nom_s0_t52            100
 FX BOUND                  BC.s_nom_s0_t53            100
 FX BOUND                  BC.s_nom_s0_t54            100
 FX BOUND                  BC.s_nom_s0_t55            100
 FX BOUND                  BC.s_nom_s0_t56            100
 FX BOUND                  BC.s_nom_s0_t57            100
 FX BOUND                  BC.s_nom_s0_t58            100
 FX BOUND                  BC.s_nom_s0_t59            100
 FX BOUND                  BC.s_nom_s0_t60            100
 FX BOUND                  BC.s_nom_s0_t61            100
 FX BOUND                  BC.s_nom_s0_t62            100
 FX BOUND                  BC.s_nom_s0_t63            100
 FX BOUND                  BC.s_nom_s0_t64            100
 FX BOUND                  BC.s_nom_s0_t65            100
 FX BOUND                  BC.s_nom_s0_t66            100
 FX BOUND                  BC.s_nom_s0_t67            100
 FX BOUND                  BC.s_nom_s0_t68            100
 FX BOUND                  BC.s_nom_s0_t69            100
 FX BOUND                  BC.s_nom_s0_t70            100
 FX BOUND                  BC.s_nom_s0_t71            100
 FX BOUND                  BC.s_nom_s0_t72            100
 FX BOUND                  BC.s_nom_s0_t73            100
 FX BOUND                  BC.s_nom_s0_t74            100
 FX BOUND                  BC.s_nom_s0_t75            100
 FX BOUND                  BC.s_nom_s0_t76            100
 FX BOUND                  BC.s_nom_s0_t77            100
 FX BOUND                  BC.s_nom_s0_t78            100
 FX BOUND                  BC.s_nom_s0_t79            100
 FX BOUND                  BC.s_nom_s0_t80            100
 FX BOUND                  BC.s_nom_s0_t81            100
 FX BOUND                  BC.s_nom_s0_t82            100
 FX BOUND                  BC.s_nom_s0_t83            100
 FX BOUND                  BC.s_nom_s0_t84            100
 FX BOUND                  BC.s_nom_s0_t85            100
 FX BOUND                  BC.s_nom_s0_t86            100
 FX BOUND                  BC.s_nom_s0_t87            100
 FX BOUND                  BC.s_nom_s0_t88            100
 FX BOUND                  BC.s_nom_s0_t89            100
 FX BOUND                  BC.s_nom_s0_t90            100
 FX BOUND                  BC.s_nom_s0_t91            100
 FX BOUND                  BC.s_nom_s0_t92            100
 FX BOUND                  BC.s_nom_s0_t93            100
 FX BOUND                  BC.s_nom_s0_t94            100
 FX BOUND                  BC.s_nom_s0_t95            100
 FX BOUND                  BC.s_nom_s0_t96            100
 FX BOUND                  BC.s_nom_s0_t97            100
 FX BOUND                  BC.s_nom_s0_t98            100
 FX BOUND                  BC.s_nom_s0_t99            100
 FX BOUND                  BC.s_nom_s0_t100           100
 FX BOUND                  BC.s_nom_s0_t101           100
 FX BOUND                  BC.s_nom_s0_t102           100
 FX BOUND                  BC.s_nom_s0_t103           100
 FX BOUND                  BC.s_nom_s0_t104           100
 FX BOUND                  BC.s_nom_s0_t105           100
 FX BOUND                  BC.s_nom_s0_t106           100
 FX BOUND                  BC.s_nom_s0_t107           100
 FX BOUND                  BC.s_nom_s0_t108           100
 FX BOUND                  BC.s_nom_s0_t109           100
 FX BOUND                  BC.s_nom_s0_t110           100
 FX BOUND                  BC.s_nom_s0_t111           100
 FX BOUND                  BC.s_nom_s0_t112           100
 FX BOUND                  BC.s_nom_s0_t113           100
 FX BOUND                  BC.s_nom_s0_t114           100
 FX BOUND                  BC.s_nom_s0_t115           100
 FX BOUND                  BC.s_nom_s0_t116           100
 FX BOUND                  BC.s_nom_s0_t117           100
 FX BOUND                  BC.s_nom_s0_t118           100
 FX BOUND                  BC.s_nom_s0_t119           100
 FX BOUND                  BC.s_nom_s0_t120           100
 FX BOUND                  BC.s_nom_s0_t121           100
 FX BOUND                  BC.s_nom_s0_t122           100
 FX BOUND                  BC.s_nom_s0_t123           100
 FX BOUND                  BC.s_nom_s0_t124           100
 FX BOUND                  BC.s_nom_s0_t125           100
 FX BOUND                  BC.s_nom_s0_t126           100
 FX BOUND                  BC.s_nom_s0_t127           100
 FX BOUND                  BC.s_nom_s0_t128           100
 FX BOUND                  BC.s_nom_s0_t129           100
 FX BOUND                  BC.s_nom_s0_t130           100
 FX BOUND                  BC.s_nom_s0_t131           100
 FX BOUND                  BC.s_nom_s0_t132           100
 FX BOUND                  BC.s_nom_s0_t133           100
 FX BOUND                  BC.s_nom_s0_t134           100
 FX BOUND                  BC.s_nom_s0_t135           100
 FX BOUND                  BC.s_nom_s0_t136           100
 FX BOUND                  BC.s_nom_s0_t137           100
 FX BOUND                  BC.s_nom_s0_t138           100
 FX BOUND                  BC.s_nom_s0_t139           100
 FX BOUND                  BC.s_nom_s0_t140           100
 FX BOUND                  BC.s_nom_s0_t141           100
 FX BOUND                  BC.s_nom_s0_t142           100
 FX BOUND                  BC.s_nom_s0_t143           100
 FX BOUND                  BC.s_nom_s0_t144           100
 FX BOUND                  BC.s_nom_s0_t145           100
 FX BOUND                  BC.s_nom_s0_t146           100
 FX BOUND                  BC.s_nom_s0_t147           100
 FX BOUND                  BC.s_nom_s0_t148           100
 FX BOUND                  BC.s_nom_s0_t149           100
 FX BOUND                  BC.s_nom_s0_t150           100
 FX BOUND                  BC.s_nom_s0_t151           100
 FX BOUND                  BC.s_nom_s0_t152           100
 FX BOUND                  BC.s_nom_s0_t153           100
 FX BOUND                  BC.s_nom_s0_t154           100
 FX BOUND                  BC.s_nom_s0_t155           100
 FX BOUND                  BC.s_nom_s0_t156           100
 FX BOUND                  BC.s_nom_s0_t157           100
 FX BOUND                  BC.s_nom_s0_t158           100
 FX BOUND                  BC.s_nom_s0_t159           100
 FX BOUND                  BC.s_nom_s0_t160           100
 FX BOUND                  BC.s_nom_s0_t161           100
 FX BOUND                  BC.s_nom_s0_t162           100
 FX BOUND                  BC.s_nom_s0_t163           100
 FX BOUND                  BC.s_nom_s0_t164           100
 FX BOUND                  BC.s_nom_s0_t165           100
 FX BOUND                  BC.s_nom_s0_t166           100
 FX BOUND                  BC.s_nom_s0_t167           100
 FR BOUND                  BC.p0_s0_t0
 FR BOUND                  BC.p0_s0_t1
 FR BOUND                  BC.p0_s0_t2
 FR BOUND                  BC.p0_s0_t3
 FR BOUND                  BC.p0_s0_t4
 FR BOUND                  BC.p0_s0_t5
 FR BOUND                  BC.p0_s0_t6
 FR BOUND                  BC.p0_s0_t7
 FR BOUND                  BC.p0_s0_t8
 FR BOUND                  BC.p0_s0_t9
 FR BOUND                  BC.p0_s0_t10
 FR BOUND                  BC.p0_s0_t11
 FR BOUND                  BC.p0_s0_t12
 FR BOUND                  BC.p0_s0_t13
 FR BOUND                  BC.p0_s0_t14
 FR BOUND                  BC.p0_s0_t15
 FR BOUND                  BC.p0_s0_t16
 FR BOUND                  BC.p0_s0_t17
 FR BOUND                  BC.p0_s0_t18
 FR BOUND                  BC.p0_s0_t19
 FR BOUND                  BC.p0_s0_t20
 FR BOUND                  BC.p0_s0_t21
 FR BOUND                  BC.p0_s0_t22
 FR BOUND                  BC.p0_s0_t23
 FR BOUND                  BC.p0_s0_t24
 FR BOUND                  BC.p0_s0_t25
 FR BOUND                  BC.p0_s0_t26
 FR BOUND                  BC.p0_s0_t27
 FR BOUND                  BC.p0_s0_t28
 FR BOUND                  BC.p0_s0_t29
 FR BOUND                  BC.p0_s0_t30
 FR BOUND                  BC.p0_s0_t31
 FR BOUND                  BC.p0_s0_t32
 FR BOUND                  BC.p0_s0_t33
 FR BOUND                  BC.p0_s0_t34
 FR BOUND                  BC.p0_s0_t35
 FR BOUND                  BC.p0_s0_t36
 FR BOUND                  BC.p0_s0_t37
 FR BOUND                  BC.p0_s0_t38
 FR BOUND                  BC.p0_s0_t39
 FR BOUND                  BC.p0_s0_t40
 FR BOUND                  BC.p0_s0_t41
 FR BOUND                  BC.p0_s0_t42
 FR BOUND                  BC.p0_s0_t43
 FR BOUND                  BC.p0_s0_t44
 FR BOUND                  BC.p0_s0_t45
 FR BOUND                  BC.p0_s0_t46
 FR BOUND                  BC.p0_s0_t47
 FR BOUND                  BC.p0_s0_t48
 FR BOUND                  BC.p0_s0_t49
 FR BOUND                  BC.p0_s0_t50
 FR BOUND                  BC.p0_s0_t51
 FR BOUND                  BC.p0_s0_t52
 FR BOUND                  BC.p0_s0_t53
 FR BOUND                  BC.p0_s0_t54
 FR BOUND                  BC.p0_s0_t55
 FR BOUND                  BC.p0_s0_t56
 FR BOUND                  BC.p0_s0_t57
 FR BOUND                  BC.p0_s0_t58
 FR BOUND                  BC.p0_s0_t59
 FR BOUND                  BC.p0_s0_t60
 FR BOUND                  BC.p0_s0_t61
 FR BOUND                  BC.p0_s0_t62
 FR BOUND                  BC.p0_s0_t63
 FR BOUND                  BC.p0_s0_t64
 FR BOUND                  BC.p0_s0_t65
 FR BOUND                  BC.p0_s0_t66
 FR BOUND                  BC.p0_s0_t67
 FR BOUND                  BC.p0_s0_t68
 FR BOUND                  BC.p0_s0_t69
 FR BOUND                  BC.p0_s0_t70
 FR BOUND                  BC.p0_s0_t71
 FR BOUND                  BC.p0_s0_t72
 FR BOUND                  BC.p0_s0_t73
 FR BOUND                  BC.p0_s0_t74
 FR BOUND                  BC.p0_s0_t75
 FR BOUND                  BC.p0_s0_t76
 FR BOUND                  BC.p0_s0_t77
 FR BOUND                  BC.p0_s0_t78
 FR BOUND                  BC.p0_s0_t79
 FR BOUND                  BC.p0_s0_t80
 FR BOUND                  BC.p0_s0_t81
 FR BOUND                  BC.p0_s0_t82
 FR BOUND                  BC.p0_s0_t83
 FR BOUND                  BC.p0_s0_t84
 FR BOUND                  BC.p0_s0_t85
 FR BOUND                  BC.p0_s0_t86
 FR BOUND                  BC.p0_s0_t87
 FR BOUND                  BC.p0_s0_t88
 FR BOUND                  BC.p0_s0_t89
 FR BOUND                  BC.p0_s0_t90
 FR BOUND                  BC.p0_s0_t91
 FR BOUND                  BC.p0_s0_t92
 FR BOUND                  BC.p0_s0_t93
 FR BOUND                  BC.p0_s0_t94
 FR BOUND                  BC.p0_s0_t95
 FR BOUND                  BC.p0_s0_t96
 FR BOUND                  BC.p0_s0_t97
 FR BOUND                  BC.p0_s0_t98
 FR BOUND                  BC.p0_s0_t99
 FR BOUND                  BC.p0_s0_t100
 FR BOUND                  BC.p0_s0_t101
 FR BOUND                  BC.p0_s0_t102
 FR BOUND                  BC.p0_s0_t103
 FR BOUND                  BC.p0_s0_t104
 FR BOUND                  BC.p0_s0_t105
 FR BOUND                  BC.p0_s0_t106
 FR BOUND                  BC.p0_s0_t107
 FR BOUND                  BC.p0_s0_t108
 FR BOUND                  BC.p0_s0_t109
 FR BOUND                  BC.p0_s0_t110
 FR BOUND                  BC.p0_s0_t111
 FR BOUND                  BC.p0_s0_t112
 FR BOUND                  BC.p0_s0_t113
 FR BOUND                  BC.p0_s0_t114
 FR BOUND                  BC.p0_s0_t115
 FR BOUND                  BC.p0_s0_t116
 FR BOUND                  BC.p0_s0_t117
 FR BOUND                  BC.p0_s0_t118
 FR BOUND                  BC.p0_s0_t119
 FR BOUND                  BC.p0_s0_t120
 FR BOUND                  BC.p0_s0_t121
 FR BOUND                  BC.p0_s0_t122
 FR BOUND                  BC.p0_s0_t123
 FR BOUND                  BC.p0_s0_t124
 FR BOUND                  BC.p0_s0_t125
 FR BOUND                  BC.p0_s0_t126
 FR BOUND                  BC.p0_s0_t127
 FR BOUND                  BC.p0_s0_t128
 FR BOUND                  BC.p0_s0_t129
 FR BOUND                  BC.p0_s0_t130
 FR BOUND                  BC.p0_s0_t131
 FR BOUND                  BC.p0_s0_t132
 FR BOUND                  BC.p0_s0_t133
 FR BOUND                  BC.p0_s0_t134
 FR BOUND                  BC.p0_s0_t135
 FR BOUND                  BC.p0_s0_t136
 FR BOUND                  BC.p0_s0_t137
 FR BOUND                  BC.p0_s0_t138
 FR BOUND                  BC.p0_s0_t139
 FR BOUND                  BC.p0_s0_t140
 FR BOUND                  BC.p0_s0_t141
 FR BOUND                  BC.p0_s0_t142
 FR BOUND                  BC.p0_s0_t143
 FR BOUND                  BC.p0_s0_t144
 FR BOUND                  BC.p0_s0_t145
 FR BOUND                  BC.p0_s0_t146
 FR BOUND                  BC.p0_s0_t147
 FR BOUND                  BC.p0_s0_t148
 FR BOUND                  BC.p0_s0_t149
 FR BOUND                  BC.p0_s0_t150
 FR BOUND                  BC.p0_s0_t151
 FR BOUND                  BC.p0_s0_t152
 FR BOUND                  BC.p0_s0_t153
 FR BOUND                  BC.p0_s0_t154
 FR BOUND                  BC.p0_s0_t155
 FR BOUND                  BC.p0_s0_t156
 FR BOUND                  BC.p0_s0_t157
 FR BOUND                  BC.p0_s0_t158
 FR BOUND                  BC.p0_s0_t159
 FR BOUND                  BC.p0_s0_t160
 FR BOUND                  BC.p0_s0_t161
 FR BOUND                  BC.p0_s0_t162
 FR BOUND                  BC.p0_s0_t163
 FR BOUND                  BC.p0_s0_t164
 FR BOUND                  BC.p0_s0_t165
 FR BOUND                  BC.p0_s0_t166
 FR BOUND                  BC.p0_s0_t167
ENDATA
