* Generated by MPModelProtoExporter
*   Name             : 
*   Format           : Free
*   Constraints      : 1853
*   Variables        : 1180
*     Binary         : 0
*     Integer        : 0
*     Continuous     : 1180
NAME          
ROWS
 N  COST
 E  A.p_balance_0
 E  A.p_balance_1
 E  A.p_balance_2
 E  A.p_balance_3
 E  A.p_balance_4
 E  A.p_balance_5
 E  A.p_balance_6
 E  A.p_balance_7
 E  A.p_balance_8
 E  A.p_balance_9
 E  A.p_balance_10
 E  A.p_balance_11
 E  A.p_balance_12
 E  A.p_balance_13
 E  A.p_balance_14
 E  A.p_balance_15
 E  A.p_balance_16
 E  A.p_balance_17
 E  A.p_balance_18
 E  A.p_balance_19
 E  A.p_balance_20
 E  A.p_balance_21
 E  A.p_balance_22
 E  A.p_balance_23
 E  A.p_balance_24
 E  A.p_balance_25
 E  A.p_balance_26
 E  A.p_balance_27
 E  A.p_balance_28
 E  A.p_balance_29
 E  A.p_balance_30
 E  A.p_balance_31
 E  A.p_balance_32
 E  A.p_balance_33
 E  A.p_balance_34
 E  A.p_balance_35
 E  A.p_balance_36
 E  A.p_balance_37
 E  A.p_balance_38
 E  A.p_balance_39
 E  A.p_balance_40
 E  A.p_balance_41
 E  A.p_balance_42
 E  A.p_balance_43
 E  A.p_balance_44
 E  A.p_balance_45
 E  A.p_balance_46
 E  A.p_balance_47
 E  A.p_balance_48
 E  A.p_balance_49
 E  A.p_balance_50
 E  A.p_balance_51
 E  A.p_balance_52
 E  A.p_balance_53
 E  A.p_balance_54
 E  A.p_balance_55
 E  A.p_balance_56
 E  A.p_balance_57
 E  A.p_balance_58
 E  A.p_balance_59
 E  A.p_balance_60
 E  A.p_balance_61
 E  A.p_balance_62
 E  A.p_balance_63
 E  A.p_balance_64
 E  A.p_balance_65
 E  A.p_balance_66
 E  A.p_balance_67
 E  A.p_balance_68
 E  A.p_balance_69
 E  A.p_balance_70
 E  A.p_balance_71
 E  A.p_balance_72
 E  A.p_balance_73
 E  A.p_balance_74
 E  A.p_balance_75
 E  A.p_balance_76
 E  A.p_balance_77
 E  A.p_balance_78
 E  A.p_balance_79
 E  A.p_balance_80
 E  A.p_balance_81
 E  A.p_balance_82
 E  A.p_balance_83
 E  A.p_balance_84
 E  A.p_balance_85
 E  A.p_balance_86
 E  A.p_balance_87
 E  A.p_balance_88
 E  A.p_balance_89
 E  A.p_balance_90
 E  A.p_balance_91
 E  A.p_balance_92
 E  A.p_balance_93
 E  A.p_balance_94
 E  A.p_balance_95
 E  A.p_balance_96
 E  A.p_balance_97
 E  A.p_balance_98
 E  A.p_balance_99
 E  A.p_balance_100
 E  A.p_balance_101
 E  A.p_balance_102
 E  A.p_balance_103
 E  A.p_balance_104
 E  A.p_balance_105
 E  A.p_balance_106
 E  A.p_balance_107
 E  A.p_balance_108
 E  A.p_balance_109
 E  A.p_balance_110
 E  A.p_balance_111
 E  A.p_balance_112
 E  A.p_balance_113
 E  A.p_balance_114
 E  A.p_balance_115
 E  A.p_balance_116
 E  A.p_balance_117
 E  A.p_balance_118
 E  A.p_balance_119
 E  A.p_balance_120
 E  A.p_balance_121
 E  A.p_balance_122
 E  A.p_balance_123
 E  A.p_balance_124
 E  A.p_balance_125
 E  A.p_balance_126
 E  A.p_balance_127
 E  A.p_balance_128
 E  A.p_balance_129
 E  A.p_balance_130
 E  A.p_balance_131
 E  A.p_balance_132
 E  A.p_balance_133
 E  A.p_balance_134
 E  A.p_balance_135
 E  A.p_balance_136
 E  A.p_balance_137
 E  A.p_balance_138
 E  A.p_balance_139
 E  A.p_balance_140
 E  A.p_balance_141
 E  A.p_balance_142
 E  A.p_balance_143
 E  A.p_balance_144
 E  A.p_balance_145
 E  A.p_balance_146
 E  A.p_balance_147
 E  A.p_balance_148
 E  A.p_balance_149
 E  A.p_balance_150
 E  A.p_balance_151
 E  A.p_balance_152
 E  A.p_balance_153
 E  A.p_balance_154
 E  A.p_balance_155
 E  A.p_balance_156
 E  A.p_balance_157
 E  A.p_balance_158
 E  A.p_balance_159
 E  A.p_balance_160
 E  A.p_balance_161
 E  A.p_balance_162
 E  A.p_balance_163
 E  A.p_balance_164
 E  A.p_balance_165
 E  A.p_balance_166
 E  A.p_balance_167
 E  A.q_balance
 E  B.p_balance_0
 E  B.p_balance_1
 E  B.p_balance_2
 E  B.p_balance_3
 E  B.p_balance_4
 E  B.p_balance_5
 E  B.p_balance_6
 E  B.p_balance_7
 E  B.p_balance_8
 E  B.p_balance_9
 E  B.p_balance_10
 E  B.p_balance_11
 E  B.p_balance_12
 E  B.p_balance_13
 E  B.p_balance_14
 E  B.p_balance_15
 E  B.p_balance_16
 E  B.p_balance_17
 E  B.p_balance_18
 E  B.p_balance_19
 E  B.p_balance_20
 E  B.p_balance_21
 E  B.p_balance_22
 E  B.p_balance_23
 E  B.p_balance_24
 E  B.p_balance_25
 E  B.p_balance_26
 E  B.p_balance_27
 E  B.p_balance_28
 E  B.p_balance_29
 E  B.p_balance_30
 E  B.p_balance_31
 E  B.p_balance_32
 E  B.p_balance_33
 E  B.p_balance_34
 E  B.p_balance_35
 E  B.p_balance_36
 E  B.p_balance_37
 E  B.p_balance_38
 E  B.p_balance_39
 E  B.p_balance_40
 E  B.p_balance_41
 E  B.p_balance_42
 E  B.p_balance_43
 E  B.p_balance_44
 E  B.p_balance_45
 E  B.p_balance_46
 E  B.p_balance_47
 E  B.p_balance_48
 E  B.p_balance_49
 E  B.p_balance_50
 E  B.p_balance_51
 E  B.p_balance_52
 E  B.p_balance_53
 E  B.p_balance_54
 E  B.p_balance_55
 E  B.p_balance_56
 E  B.p_balance_57
 E  B.p_balance_58
 E  B.p_balance_59
 E  B.p_balance_60
 E  B.p_balance_61
 E  B.p_balance_62
 E  B.p_balance_63
 E  B.p_balance_64
 E  B.p_balance_65
 E  B.p_balance_66
 E  B.p_balance_67
 E  B.p_balance_68
 E  B.p_balance_69
 E  B.p_balance_70
 E  B.p_balance_71
 E  B.p_balance_72
 E  B.p_balance_73
 E  B.p_balance_74
 E  B.p_balance_75
 E  B.p_balance_76
 E  B.p_balance_77
 E  B.p_balance_78
 E  B.p_balance_79
 E  B.p_balance_80
 E  B.p_balance_81
 E  B.p_balance_82
 E  B.p_balance_83
 E  B.p_balance_84
 E  B.p_balance_85
 E  B.p_balance_86
 E  B.p_balance_87
 E  B.p_balance_88
 E  B.p_balance_89
 E  B.p_balance_90
 E  B.p_balance_91
 E  B.p_balance_92
 E  B.p_balance_93
 E  B.p_balance_94
 E  B.p_balance_95
 E  B.p_balance_96
 E  B.p_balance_97
 E  B.p_balance_98
 E  B.p_balance_99
 E  B.p_balance_100
 E  B.p_balance_101
 E  B.p_balance_102
 E  B.p_balance_103
 E  B.p_balance_104
 E  B.p_balance_105
 E  B.p_balance_106
 E  B.p_balance_107
 E  B.p_balance_108
 E  B.p_balance_109
 E  B.p_balance_110
 E  B.p_balance_111
 E  B.p_balance_112
 E  B.p_balance_113
 E  B.p_balance_114
 E  B.p_balance_115
 E  B.p_balance_116
 E  B.p_balance_117
 E  B.p_balance_118
 E  B.p_balance_119
 E  B.p_balance_120
 E  B.p_balance_121
 E  B.p_balance_122
 E  B.p_balance_123
 E  B.p_balance_124
 E  B.p_balance_125
 E  B.p_balance_126
 E  B.p_balance_127
 E  B.p_balance_128
 E  B.p_balance_129
 E  B.p_balance_130
 E  B.p_balance_131
 E  B.p_balance_132
 E  B.p_balance_133
 E  B.p_balance_134
 E  B.p_balance_135
 E  B.p_balance_136
 E  B.p_balance_137
 E  B.p_balance_138
 E  B.p_balance_139
 E  B.p_balance_140
 E  B.p_balance_141
 E  B.p_balance_142
 E  B.p_balance_143
 E  B.p_balance_144
 E  B.p_balance_145
 E  B.p_balance_146
 E  B.p_balance_147
 E  B.p_balance_148
 E  B.p_balance_149
 E  B.p_balance_150
 E  B.p_balance_151
 E  B.p_balance_152
 E  B.p_balance_153
 E  B.p_balance_154
 E  B.p_balance_155
 E  B.p_balance_156
 E  B.p_balance_157
 E  B.p_balance_158
 E  B.p_balance_159
 E  B.p_balance_160
 E  B.p_balance_161
 E  B.p_balance_162
 E  B.p_balance_163
 E  B.p_balance_164
 E  B.p_balance_165
 E  B.p_balance_166
 E  B.p_balance_167
 E  B.q_balance
 E  C.p_balance_0
 E  C.p_balance_1
 E  C.p_balance_2
 E  C.p_balance_3
 E  C.p_balance_4
 E  C.p_balance_5
 E  C.p_balance_6
 E  C.p_balance_7
 E  C.p_balance_8
 E  C.p_balance_9
 E  C.p_balance_10
 E  C.p_balance_11
 E  C.p_balance_12
 E  C.p_balance_13
 E  C.p_balance_14
 E  C.p_balance_15
 E  C.p_balance_16
 E  C.p_balance_17
 E  C.p_balance_18
 E  C.p_balance_19
 E  C.p_balance_20
 E  C.p_balance_21
 E  C.p_balance_22
 E  C.p_balance_23
 E  C.p_balance_24
 E  C.p_balance_25
 E  C.p_balance_26
 E  C.p_balance_27
 E  C.p_balance_28
 E  C.p_balance_29
 E  C.p_balance_30
 E  C.p_balance_31
 E  C.p_balance_32
 E  C.p_balance_33
 E  C.p_balance_34
 E  C.p_balance_35
 E  C.p_balance_36
 E  C.p_balance_37
 E  C.p_balance_38
 E  C.p_balance_39
 E  C.p_balance_40
 E  C.p_balance_41
 E  C.p_balance_42
 E  C.p_balance_43
 E  C.p_balance_44
 E  C.p_balance_45
 E  C.p_balance_46
 E  C.p_balance_47
 E  C.p_balance_48
 E  C.p_balance_49
 E  C.p_balance_50
 E  C.p_balance_51
 E  C.p_balance_52
 E  C.p_balance_53
 E  C.p_balance_54
 E  C.p_balance_55
 E  C.p_balance_56
 E  C.p_balance_57
 E  C.p_balance_58
 E  C.p_balance_59
 E  C.p_balance_60
 E  C.p_balance_61
 E  C.p_balance_62
 E  C.p_balance_63
 E  C.p_balance_64
 E  C.p_balance_65
 E  C.p_balance_66
 E  C.p_balance_67
 E  C.p_balance_68
 E  C.p_balance_69
 E  C.p_balance_70
 E  C.p_balance_71
 E  C.p_balance_72
 E  C.p_balance_73
 E  C.p_balance_74
 E  C.p_balance_75
 E  C.p_balance_76
 E  C.p_balance_77
 E  C.p_balance_78
 E  C.p_balance_79
 E  C.p_balance_80
 E  C.p_balance_81
 E  C.p_balance_82
 E  C.p_balance_83
 E  C.p_balance_84
 E  C.p_balance_85
 E  C.p_balance_86
 E  C.p_balance_87
 E  C.p_balance_88
 E  C.p_balance_89
 E  C.p_balance_90
 E  C.p_balance_91
 E  C.p_balance_92
 E  C.p_balance_93
 E  C.p_balance_94
 E  C.p_balance_95
 E  C.p_balance_96
 E  C.p_balance_97
 E  C.p_balance_98
 E  C.p_balance_99
 E  C.p_balance_100
 E  C.p_balance_101
 E  C.p_balance_102
 E  C.p_balance_103
 E  C.p_balance_104
 E  C.p_balance_105
 E  C.p_balance_106
 E  C.p_balance_107
 E  C.p_balance_108
 E  C.p_balance_109
 E  C.p_balance_110
 E  C.p_balance_111
 E  C.p_balance_112
 E  C.p_balance_113
 E  C.p_balance_114
 E  C.p_balance_115
 E  C.p_balance_116
 E  C.p_balance_117
 E  C.p_balance_118
 E  C.p_balance_119
 E  C.p_balance_120
 E  C.p_balance_121
 E  C.p_balance_122
 E  C.p_balance_123
 E  C.p_balance_124
 E  C.p_balance_125
 E  C.p_balance_126
 E  C.p_balance_127
 E  C.p_balance_128
 E  C.p_balance_129
 E  C.p_balance_130
 E  C.p_balance_131
 E  C.p_balance_132
 E  C.p_balance_133
 E  C.p_balance_134
 E  C.p_balance_135
 E  C.p_balance_136
 E  C.p_balance_137
 E  C.p_balance_138
 E  C.p_balance_139
 E  C.p_balance_140
 E  C.p_balance_141
 E  C.p_balance_142
 E  C.p_balance_143
 E  C.p_balance_144
 E  C.p_balance_145
 E  C.p_balance_146
 E  C.p_balance_147
 E  C.p_balance_148
 E  C.p_balance_149
 E  C.p_balance_150
 E  C.p_balance_151
 E  C.p_balance_152
 E  C.p_balance_153
 E  C.p_balance_154
 E  C.p_balance_155
 E  C.p_balance_156
 E  C.p_balance_157
 E  C.p_balance_158
 E  C.p_balance_159
 E  C.p_balance_160
 E  C.p_balance_161
 E  C.p_balance_162
 E  C.p_balance_163
 E  C.p_balance_164
 E  C.p_balance_165
 E  C.p_balance_166
 E  C.p_balance_167
 E  C.q_balance
 G  G_A.min_dispatch_0
 G  G_A.min_dispatch_1
 G  G_A.min_dispatch_2
 G  G_A.min_dispatch_3
 G  G_A.min_dispatch_4
 G  G_A.min_dispatch_5
 G  G_A.min_dispatch_6
 G  G_A.min_dispatch_7
 G  G_A.min_dispatch_8
 G  G_A.min_dispatch_9
 G  G_A.min_dispatch_10
 G  G_A.min_dispatch_11
 G  G_A.min_dispatch_12
 G  G_A.min_dispatch_13
 G  G_A.min_dispatch_14
 G  G_A.min_dispatch_15
 G  G_A.min_dispatch_16
 G  G_A.min_dispatch_17
 G  G_A.min_dispatch_18
 G  G_A.min_dispatch_19
 G  G_A.min_dispatch_20
 G  G_A.min_dispatch_21
 G  G_A.min_dispatch_22
 G  G_A.min_dispatch_23
 G  G_A.min_dispatch_24
 G  G_A.min_dispatch_25
 G  G_A.min_dispatch_26
 G  G_A.min_dispatch_27
 G  G_A.min_dispatch_28
 G  G_A.min_dispatch_29
 G  G_A.min_dispatch_30
 G  G_A.min_dispatch_31
 G  G_A.min_dispatch_32
 G  G_A.min_dispatch_33
 G  G_A.min_dispatch_34
 G  G_A.min_dispatch_35
 G  G_A.min_dispatch_36
 G  G_A.min_dispatch_37
 G  G_A.min_dispatch_38
 G  G_A.min_dispatch_39
 G  G_A.min_dispatch_40
 G  G_A.min_dispatch_41
 G  G_A.min_dispatch_42
 G  G_A.min_dispatch_43
 G  G_A.min_dispatch_44
 G  G_A.min_dispatch_45
 G  G_A.min_dispatch_46
 G  G_A.min_dispatch_47
 G  G_A.min_dispatch_48
 G  G_A.min_dispatch_49
 G  G_A.min_dispatch_50
 G  G_A.min_dispatch_51
 G  G_A.min_dispatch_52
 G  G_A.min_dispatch_53
 G  G_A.min_dispatch_54
 G  G_A.min_dispatch_55
 G  G_A.min_dispatch_56
 G  G_A.min_dispatch_57
 G  G_A.min_dispatch_58
 G  G_A.min_dispatch_59
 G  G_A.min_dispatch_60
 G  G_A.min_dispatch_61
 G  G_A.min_dispatch_62
 G  G_A.min_dispatch_63
 G  G_A.min_dispatch_64
 G  G_A.min_dispatch_65
 G  G_A.min_dispatch_66
 G  G_A.min_dispatch_67
 G  G_A.min_dispatch_68
 G  G_A.min_dispatch_69
 G  G_A.min_dispatch_70
 G  G_A.min_dispatch_71
 G  G_A.min_dispatch_72
 G  G_A.min_dispatch_73
 G  G_A.min_dispatch_74
 G  G_A.min_dispatch_75
 G  G_A.min_dispatch_76
 G  G_A.min_dispatch_77
 G  G_A.min_dispatch_78
 G  G_A.min_dispatch_79
 G  G_A.min_dispatch_80
 G  G_A.min_dispatch_81
 G  G_A.min_dispatch_82
 G  G_A.min_dispatch_83
 G  G_A.min_dispatch_84
 G  G_A.min_dispatch_85
 G  G_A.min_dispatch_86
 G  G_A.min_dispatch_87
 G  G_A.min_dispatch_88
 G  G_A.min_dispatch_89
 G  G_A.min_dispatch_90
 G  G_A.min_dispatch_91
 G  G_A.min_dispatch_92
 G  G_A.min_dispatch_93
 G  G_A.min_dispatch_94
 G  G_A.min_dispatch_95
 G  G_A.min_dispatch_96
 G  G_A.min_dispatch_97
 G  G_A.min_dispatch_98
 G  G_A.min_dispatch_99
 G  G_A.min_dispatch_100
 G  G_A.min_dispatch_101
 G  G_A.min_dispatch_102
 G  G_A.min_dispatch_103
 G  G_A.min_dispatch_104
 G  G_A.min_dispatch_105
 G  G_A.min_dispatch_106
 G  G_A.min_dispatch_107
 G  G_A.min_dispatch_108
 G  G_A.min_dispatch_109
 G  G_A.min_dispatch_110
 G  G_A.min_dispatch_111
 G  G_A.min_dispatch_112
 G  G_A.min_dispatch_113
 G  G_A.min_dispatch_114
 G  G_A.min_dispatch_115
 G  G_A.min_dispatch_116
 G  G_A.min_dispatch_117
 G  G_A.min_dispatch_118
 G  G_A.min_dispatch_119
 G  G_A.min_dispatch_120
 G  G_A.min_dispatch_121
 G  G_A.min_dispatch_122
 G  G_A.min_dispatch_123
 G  G_A.min_dispatch_124
 G  G_A.min_dispatch_125
 G  G_A.min_dispatch_126
 G  G_A.min_dispatch_127
 G  G_A.min_dispatch_128
 G  G_A.min_dispatch_129
 G  G_A.min_dispatch_130
 G  G_A.min_dispatch_131
 G  G_A.min_dispatch_132
 G  G_A.min_dispatch_133
 G  G_A.min_dispatch_134
 G  G_A.min_dispatch_135
 G  G_A.min_dispatch_136
 G  G_A.min_dispatch_137
 G  G_A.min_dispatch_138
 G  G_A.min_dispatch_139
 G  G_A.min_dispatch_140
 G  G_A.min_dispatch_141
 G  G_A.min_dispatch_142
 G  G_A.min_dispatch_143
 G  G_A.min_dispatch_144
 G  G_A.min_dispatch_145
 G  G_A.min_dispatch_146
 G  G_A.min_dispatch_147
 G  G_A.min_dispatch_148
 G  G_A.min_dispatch_149
 G  G_A.min_dispatch_150
 G  G_A.min_dispatch_151
 G  G_A.min_dispatch_152
 G  G_A.min_dispatch_153
 G  G_A.min_dispatch_154
 G  G_A.min_dispatch_155
 G  G_A.min_dispatch_156
 G  G_A.min_dispatch_157
 G  G_A.min_dispatch_158
 G  G_A.min_dispatch_159
 G  G_A.min_dispatch_160
 G  G_A.min_dispatch_161
 G  G_A.min_dispatch_162
 G  G_A.min_dispatch_163
 G  G_A.min_dispatch_164
 G  G_A.min_dispatch_165
 G  G_A.min_dispatch_166
 G  G_A.min_dispatch_167
 L  G_A.max_dispatch_0
 L  G_A.max_dispatch_1
 L  G_A.max_dispatch_2
 L  G_A.max_dispatch_3
 L  G_A.max_dispatch_4
 L  G_A.max_dispatch_5
 L  G_A.max_dispatch_6
 L  G_A.max_dispatch_7
 L  G_A.max_dispatch_8
 L  G_A.max_dispatch_9
 L  G_A.max_dispatch_10
 L  G_A.max_dispatch_11
 L  G_A.max_dispatch_12
 L  G_A.max_dispatch_13
 L  G_A.max_dispatch_14
 L  G_A.max_dispatch_15
 L  G_A.max_dispatch_16
 L  G_A.max_dispatch_17
 L  G_A.max_dispatch_18
 L  G_A.max_dispatch_19
 L  G_A.max_dispatch_20
 L  G_A.max_dispatch_21
 L  G_A.max_dispatch_22
 L  G_A.max_dispatch_23
 L  G_A.max_dispatch_24
 L  G_A.max_dispatch_25
 L  G_A.max_dispatch_26
 L  G_A.max_dispatch_27
 L  G_A.max_dispatch_28
 L  G_A.max_dispatch_29
 L  G_A.max_dispatch_30
 L  G_A.max_dispatch_31
 L  G_A.max_dispatch_32
 L  G_A.max_dispatch_33
 L  G_A.max_dispatch_34
 L  G_A.max_dispatch_35
 L  G_A.max_dispatch_36
 L  G_A.max_dispatch_37
 L  G_A.max_dispatch_38
 L  G_A.max_dispatch_39
 L  G_A.max_dispatch_40
 L  G_A.max_dispatch_41
 L  G_A.max_dispatch_42
 L  G_A.max_dispatch_43
 L  G_A.max_dispatch_44
 L  G_A.max_dispatch_45
 L  G_A.max_dispatch_46
 L  G_A.max_dispatch_47
 L  G_A.max_dispatch_48
 L  G_A.max_dispatch_49
 L  G_A.max_dispatch_50
 L  G_A.max_dispatch_51
 L  G_A.max_dispatch_52
 L  G_A.max_dispatch_53
 L  G_A.max_dispatch_54
 L  G_A.max_dispatch_55
 L  G_A.max_dispatch_56
 L  G_A.max_dispatch_57
 L  G_A.max_dispatch_58
 L  G_A.max_dispatch_59
 L  G_A.max_dispatch_60
 L  G_A.max_dispatch_61
 L  G_A.max_dispatch_62
 L  G_A.max_dispatch_63
 L  G_A.max_dispatch_64
 L  G_A.max_dispatch_65
 L  G_A.max_dispatch_66
 L  G_A.max_dispatch_67
 L  G_A.max_dispatch_68
 L  G_A.max_dispatch_69
 L  G_A.max_dispatch_70
 L  G_A.max_dispatch_71
 L  G_A.max_dispatch_72
 L  G_A.max_dispatch_73
 L  G_A.max_dispatch_74
 L  G_A.max_dispatch_75
 L  G_A.max_dispatch_76
 L  G_A.max_dispatch_77
 L  G_A.max_dispatch_78
 L  G_A.max_dispatch_79
 L  G_A.max_dispatch_80
 L  G_A.max_dispatch_81
 L  G_A.max_dispatch_82
 L  G_A.max_dispatch_83
 L  G_A.max_dispatch_84
 L  G_A.max_dispatch_85
 L  G_A.max_dispatch_86
 L  G_A.max_dispatch_87
 L  G_A.max_dispatch_88
 L  G_A.max_dispatch_89
 L  G_A.max_dispatch_90
 L  G_A.max_dispatch_91
 L  G_A.max_dispatch_92
 L  G_A.max_dispatch_93
 L  G_A.max_dispatch_94
 L  G_A.max_dispatch_95
 L  G_A.max_dispatch_96
 L  G_A.max_dispatch_97
 L  G_A.max_dispatch_98
 L  G_A.max_dispatch_99
 L  G_A.max_dispatch_100
 L  G_A.max_dispatch_101
 L  G_A.max_dispatch_102
 L  G_A.max_dispatch_103
 L  G_A.max_dispatch_104
 L  G_A.max_dispatch_105
 L  G_A.max_dispatch_106
 L  G_A.max_dispatch_107
 L  G_A.max_dispatch_108
 L  G_A.max_dispatch_109
 L  G_A.max_dispatch_110
 L  G_A.max_dispatch_111
 L  G_A.max_dispatch_112
 L  G_A.max_dispatch_113
 L  G_A.max_dispatch_114
 L  G_A.max_dispatch_115
 L  G_A.max_dispatch_116
 L  G_A.max_dispatch_117
 L  G_A.max_dispatch_118
 L  G_A.max_dispatch_119
 L  G_A.max_dispatch_120
 L  G_A.max_dispatch_121
 L  G_A.max_dispatch_122
 L  G_A.max_dispatch_123
 L  G_A.max_dispatch_124
 L  G_A.max_dispatch_125
 L  G_A.max_dispatch_126
 L  G_A.max_dispatch_127
 L  G_A.max_dispatch_128
 L  G_A.max_dispatch_129
 L  G_A.max_dispatch_130
 L  G_A.max_dispatch_131
 L  G_A.max_dispatch_132
 L  G_A.max_dispatch_133
 L  G_A.max_dispatch_134
 L  G_A.max_dispatch_135
 L  G_A.max_dispatch_136
 L  G_A.max_dispatch_137
 L  G_A.max_dispatch_138
 L  G_A.max_dispatch_139
 L  G_A.max_dispatch_140
 L  G_A.max_dispatch_141
 L  G_A.max_dispatch_142
 L  G_A.max_dispatch_143
 L  G_A.max_dispatch_144
 L  G_A.max_dispatch_145
 L  G_A.max_dispatch_146
 L  G_A.max_dispatch_147
 L  G_A.max_dispatch_148
 L  G_A.max_dispatch_149
 L  G_A.max_dispatch_150
 L  G_A.max_dispatch_151
 L  G_A.max_dispatch_152
 L  G_A.max_dispatch_153
 L  G_A.max_dispatch_154
 L  G_A.max_dispatch_155
 L  G_A.max_dispatch_156
 L  G_A.max_dispatch_157
 L  G_A.max_dispatch_158
 L  G_A.max_dispatch_159
 L  G_A.max_dispatch_160
 L  G_A.max_dispatch_161
 L  G_A.max_dispatch_162
 L  G_A.max_dispatch_163
 L  G_A.max_dispatch_164
 L  G_A.max_dispatch_165
 L  G_A.max_dispatch_166
 L  G_A.max_dispatch_167
 G  G_A.min_production
 L  G_A.max_production
 L  AB.p0_upper_0
 L  AB.p0_upper_1
 L  AB.p0_upper_2
 L  AB.p0_upper_3
 L  AB.p0_upper_4
 L  AB.p0_upper_5
 L  AB.p0_upper_6
 L  AB.p0_upper_7
 L  AB.p0_upper_8
 L  AB.p0_upper_9
 L  AB.p0_upper_10
 L  AB.p0_upper_11
 L  AB.p0_upper_12
 L  AB.p0_upper_13
 L  AB.p0_upper_14
 L  AB.p0_upper_15
 L  AB.p0_upper_16
 L  AB.p0_upper_17
 L  AB.p0_upper_18
 L  AB.p0_upper_19
 L  AB.p0_upper_20
 L  AB.p0_upper_21
 L  AB.p0_upper_22
 L  AB.p0_upper_23
 L  AB.p0_upper_24
 L  AB.p0_upper_25
 L  AB.p0_upper_26
 L  AB.p0_upper_27
 L  AB.p0_upper_28
 L  AB.p0_upper_29
 L  AB.p0_upper_30
 L  AB.p0_upper_31
 L  AB.p0_upper_32
 L  AB.p0_upper_33
 L  AB.p0_upper_34
 L  AB.p0_upper_35
 L  AB.p0_upper_36
 L  AB.p0_upper_37
 L  AB.p0_upper_38
 L  AB.p0_upper_39
 L  AB.p0_upper_40
 L  AB.p0_upper_41
 L  AB.p0_upper_42
 L  AB.p0_upper_43
 L  AB.p0_upper_44
 L  AB.p0_upper_45
 L  AB.p0_upper_46
 L  AB.p0_upper_47
 L  AB.p0_upper_48
 L  AB.p0_upper_49
 L  AB.p0_upper_50
 L  AB.p0_upper_51
 L  AB.p0_upper_52
 L  AB.p0_upper_53
 L  AB.p0_upper_54
 L  AB.p0_upper_55
 L  AB.p0_upper_56
 L  AB.p0_upper_57
 L  AB.p0_upper_58
 L  AB.p0_upper_59
 L  AB.p0_upper_60
 L  AB.p0_upper_61
 L  AB.p0_upper_62
 L  AB.p0_upper_63
 L  AB.p0_upper_64
 L  AB.p0_upper_65
 L  AB.p0_upper_66
 L  AB.p0_upper_67
 L  AB.p0_upper_68
 L  AB.p0_upper_69
 L  AB.p0_upper_70
 L  AB.p0_upper_71
 L  AB.p0_upper_72
 L  AB.p0_upper_73
 L  AB.p0_upper_74
 L  AB.p0_upper_75
 L  AB.p0_upper_76
 L  AB.p0_upper_77
 L  AB.p0_upper_78
 L  AB.p0_upper_79
 L  AB.p0_upper_80
 L  AB.p0_upper_81
 L  AB.p0_upper_82
 L  AB.p0_upper_83
 L  AB.p0_upper_84
 L  AB.p0_upper_85
 L  AB.p0_upper_86
 L  AB.p0_upper_87
 L  AB.p0_upper_88
 L  AB.p0_upper_89
 L  AB.p0_upper_90
 L  AB.p0_upper_91
 L  AB.p0_upper_92
 L  AB.p0_upper_93
 L  AB.p0_upper_94
 L  AB.p0_upper_95
 L  AB.p0_upper_96
 L  AB.p0_upper_97
 L  AB.p0_upper_98
 L  AB.p0_upper_99
 L  AB.p0_upper_100
 L  AB.p0_upper_101
 L  AB.p0_upper_102
 L  AB.p0_upper_103
 L  AB.p0_upper_104
 L  AB.p0_upper_105
 L  AB.p0_upper_106
 L  AB.p0_upper_107
 L  AB.p0_upper_108
 L  AB.p0_upper_109
 L  AB.p0_upper_110
 L  AB.p0_upper_111
 L  AB.p0_upper_112
 L  AB.p0_upper_113
 L  AB.p0_upper_114
 L  AB.p0_upper_115
 L  AB.p0_upper_116
 L  AB.p0_upper_117
 L  AB.p0_upper_118
 L  AB.p0_upper_119
 L  AB.p0_upper_120
 L  AB.p0_upper_121
 L  AB.p0_upper_122
 L  AB.p0_upper_123
 L  AB.p0_upper_124
 L  AB.p0_upper_125
 L  AB.p0_upper_126
 L  AB.p0_upper_127
 L  AB.p0_upper_128
 L  AB.p0_upper_129
 L  AB.p0_upper_130
 L  AB.p0_upper_131
 L  AB.p0_upper_132
 L  AB.p0_upper_133
 L  AB.p0_upper_134
 L  AB.p0_upper_135
 L  AB.p0_upper_136
 L  AB.p0_upper_137
 L  AB.p0_upper_138
 L  AB.p0_upper_139
 L  AB.p0_upper_140
 L  AB.p0_upper_141
 L  AB.p0_upper_142
 L  AB.p0_upper_143
 L  AB.p0_upper_144
 L  AB.p0_upper_145
 L  AB.p0_upper_146
 L  AB.p0_upper_147
 L  AB.p0_upper_148
 L  AB.p0_upper_149
 L  AB.p0_upper_150
 L  AB.p0_upper_151
 L  AB.p0_upper_152
 L  AB.p0_upper_153
 L  AB.p0_upper_154
 L  AB.p0_upper_155
 L  AB.p0_upper_156
 L  AB.p0_upper_157
 L  AB.p0_upper_158
 L  AB.p0_upper_159
 L  AB.p0_upper_160
 L  AB.p0_upper_161
 L  AB.p0_upper_162
 L  AB.p0_upper_163
 L  AB.p0_upper_164
 L  AB.p0_upper_165
 L  AB.p0_upper_166
 L  AB.p0_upper_167
 G  AB.p0_lower_0
 G  AB.p0_lower_1
 G  AB.p0_lower_2
 G  AB.p0_lower_3
 G  AB.p0_lower_4
 G  AB.p0_lower_5
 G  AB.p0_lower_6
 G  AB.p0_lower_7
 G  AB.p0_lower_8
 G  AB.p0_lower_9
 G  AB.p0_lower_10
 G  AB.p0_lower_11
 G  AB.p0_lower_12
 G  AB.p0_lower_13
 G  AB.p0_lower_14
 G  AB.p0_lower_15
 G  AB.p0_lower_16
 G  AB.p0_lower_17
 G  AB.p0_lower_18
 G  AB.p0_lower_19
 G  AB.p0_lower_20
 G  AB.p0_lower_21
 G  AB.p0_lower_22
 G  AB.p0_lower_23
 G  AB.p0_lower_24
 G  AB.p0_lower_25
 G  AB.p0_lower_26
 G  AB.p0_lower_27
 G  AB.p0_lower_28
 G  AB.p0_lower_29
 G  AB.p0_lower_30
 G  AB.p0_lower_31
 G  AB.p0_lower_32
 G  AB.p0_lower_33
 G  AB.p0_lower_34
 G  AB.p0_lower_35
 G  AB.p0_lower_36
 G  AB.p0_lower_37
 G  AB.p0_lower_38
 G  AB.p0_lower_39
 G  AB.p0_lower_40
 G  AB.p0_lower_41
 G  AB.p0_lower_42
 G  AB.p0_lower_43
 G  AB.p0_lower_44
 G  AB.p0_lower_45
 G  AB.p0_lower_46
 G  AB.p0_lower_47
 G  AB.p0_lower_48
 G  AB.p0_lower_49
 G  AB.p0_lower_50
 G  AB.p0_lower_51
 G  AB.p0_lower_52
 G  AB.p0_lower_53
 G  AB.p0_lower_54
 G  AB.p0_lower_55
 G  AB.p0_lower_56
 G  AB.p0_lower_57
 G  AB.p0_lower_58
 G  AB.p0_lower_59
 G  AB.p0_lower_60
 G  AB.p0_lower_61
 G  AB.p0_lower_62
 G  AB.p0_lower_63
 G  AB.p0_lower_64
 G  AB.p0_lower_65
 G  AB.p0_lower_66
 G  AB.p0_lower_67
 G  AB.p0_lower_68
 G  AB.p0_lower_69
 G  AB.p0_lower_70
 G  AB.p0_lower_71
 G  AB.p0_lower_72
 G  AB.p0_lower_73
 G  AB.p0_lower_74
 G  AB.p0_lower_75
 G  AB.p0_lower_76
 G  AB.p0_lower_77
 G  AB.p0_lower_78
 G  AB.p0_lower_79
 G  AB.p0_lower_80
 G  AB.p0_lower_81
 G  AB.p0_lower_82
 G  AB.p0_lower_83
 G  AB.p0_lower_84
 G  AB.p0_lower_85
 G  AB.p0_lower_86
 G  AB.p0_lower_87
 G  AB.p0_lower_88
 G  AB.p0_lower_89
 G  AB.p0_lower_90
 G  AB.p0_lower_91
 G  AB.p0_lower_92
 G  AB.p0_lower_93
 G  AB.p0_lower_94
 G  AB.p0_lower_95
 G  AB.p0_lower_96
 G  AB.p0_lower_97
 G  AB.p0_lower_98
 G  AB.p0_lower_99
 G  AB.p0_lower_100
 G  AB.p0_lower_101
 G  AB.p0_lower_102
 G  AB.p0_lower_103
 G  AB.p0_lower_104
 G  AB.p0_lower_105
 G  AB.p0_lower_106
 G  AB.p0_lower_107
 G  AB.p0_lower_108
 G  AB.p0_lower_109
 G  AB.p0_lower_110
 G  AB.p0_lower_111
 G  AB.p0_lower_112
 G  AB.p0_lower_113
 G  AB.p0_lower_114
 G  AB.p0_lower_115
 G  AB.p0_lower_116
 G  AB.p0_lower_117
 G  AB.p0_lower_118
 G  AB.p0_lower_119
 G  AB.p0_lower_120
 G  AB.p0_lower_121
 G  AB.p0_lower_122
 G  AB.p0_lower_123
 G  AB.p0_lower_124
 G  AB.p0_lower_125
 G  AB.p0_lower_126
 G  AB.p0_lower_127
 G  AB.p0_lower_128
 G  AB.p0_lower_129
 G  AB.p0_lower_130
 G  AB.p0_lower_131
 G  AB.p0_lower_132
 G  AB.p0_lower_133
 G  AB.p0_lower_134
 G  AB.p0_lower_135
 G  AB.p0_lower_136
 G  AB.p0_lower_137
 G  AB.p0_lower_138
 G  AB.p0_lower_139
 G  AB.p0_lower_140
 G  AB.p0_lower_141
 G  AB.p0_lower_142
 G  AB.p0_lower_143
 G  AB.p0_lower_144
 G  AB.p0_lower_145
 G  AB.p0_lower_146
 G  AB.p0_lower_147
 G  AB.p0_lower_148
 G  AB.p0_lower_149
 G  AB.p0_lower_150
 G  AB.p0_lower_151
 G  AB.p0_lower_152
 G  AB.p0_lower_153
 G  AB.p0_lower_154
 G  AB.p0_lower_155
 G  AB.p0_lower_156
 G  AB.p0_lower_157
 G  AB.p0_lower_158
 G  AB.p0_lower_159
 G  AB.p0_lower_160
 G  AB.p0_lower_161
 G  AB.p0_lower_162
 G  AB.p0_lower_163
 G  AB.p0_lower_164
 G  AB.p0_lower_165
 G  AB.p0_lower_166
 G  AB.p0_lower_167
 L  BC.p0_upper_0
 L  BC.p0_upper_1
 L  BC.p0_upper_2
 L  BC.p0_upper_3
 L  BC.p0_upper_4
 L  BC.p0_upper_5
 L  BC.p0_upper_6
 L  BC.p0_upper_7
 L  BC.p0_upper_8
 L  BC.p0_upper_9
 L  BC.p0_upper_10
 L  BC.p0_upper_11
 L  BC.p0_upper_12
 L  BC.p0_upper_13
 L  BC.p0_upper_14
 L  BC.p0_upper_15
 L  BC.p0_upper_16
 L  BC.p0_upper_17
 L  BC.p0_upper_18
 L  BC.p0_upper_19
 L  BC.p0_upper_20
 L  BC.p0_upper_21
 L  BC.p0_upper_22
 L  BC.p0_upper_23
 L  BC.p0_upper_24
 L  BC.p0_upper_25
 L  BC.p0_upper_26
 L  BC.p0_upper_27
 L  BC.p0_upper_28
 L  BC.p0_upper_29
 L  BC.p0_upper_30
 L  BC.p0_upper_31
 L  BC.p0_upper_32
 L  BC.p0_upper_33
 L  BC.p0_upper_34
 L  BC.p0_upper_35
 L  BC.p0_upper_36
 L  BC.p0_upper_37
 L  BC.p0_upper_38
 L  BC.p0_upper_39
 L  BC.p0_upper_40
 L  BC.p0_upper_41
 L  BC.p0_upper_42
 L  BC.p0_upper_43
 L  BC.p0_upper_44
 L  BC.p0_upper_45
 L  BC.p0_upper_46
 L  BC.p0_upper_47
 L  BC.p0_upper_48
 L  BC.p0_upper_49
 L  BC.p0_upper_50
 L  BC.p0_upper_51
 L  BC.p0_upper_52
 L  BC.p0_upper_53
 L  BC.p0_upper_54
 L  BC.p0_upper_55
 L  BC.p0_upper_56
 L  BC.p0_upper_57
 L  BC.p0_upper_58
 L  BC.p0_upper_59
 L  BC.p0_upper_60
 L  BC.p0_upper_61
 L  BC.p0_upper_62
 L  BC.p0_upper_63
 L  BC.p0_upper_64
 L  BC.p0_upper_65
 L  BC.p0_upper_66
 L  BC.p0_upper_67
 L  BC.p0_upper_68
 L  BC.p0_upper_69
 L  BC.p0_upper_70
 L  BC.p0_upper_71
 L  BC.p0_upper_72
 L  BC.p0_upper_73
 L  BC.p0_upper_74
 L  BC.p0_upper_75
 L  BC.p0_upper_76
 L  BC.p0_upper_77
 L  BC.p0_upper_78
 L  BC.p0_upper_79
 L  BC.p0_upper_80
 L  BC.p0_upper_81
 L  BC.p0_upper_82
 L  BC.p0_upper_83
 L  BC.p0_upper_84
 L  BC.p0_upper_85
 L  BC.p0_upper_86
 L  BC.p0_upper_87
 L  BC.p0_upper_88
 L  BC.p0_upper_89
 L  BC.p0_upper_90
 L  BC.p0_upper_91
 L  BC.p0_upper_92
 L  BC.p0_upper_93
 L  BC.p0_upper_94
 L  BC.p0_upper_95
 L  BC.p0_upper_96
 L  BC.p0_upper_97
 L  BC.p0_upper_98
 L  BC.p0_upper_99
 L  BC.p0_upper_100
 L  BC.p0_upper_101
 L  BC.p0_upper_102
 L  BC.p0_upper_103
 L  BC.p0_upper_104
 L  BC.p0_upper_105
 L  BC.p0_upper_106
 L  BC.p0_upper_107
 L  BC.p0_upper_108
 L  BC.p0_upper_109
 L  BC.p0_upper_110
 L  BC.p0_upper_111
 L  BC.p0_upper_112
 L  BC.p0_upper_113
 L  BC.p0_upper_114
 L  BC.p0_upper_115
 L  BC.p0_upper_116
 L  BC.p0_upper_117
 L  BC.p0_upper_118
 L  BC.p0_upper_119
 L  BC.p0_upper_120
 L  BC.p0_upper_121
 L  BC.p0_upper_122
 L  BC.p0_upper_123
 L  BC.p0_upper_124
 L  BC.p0_upper_125
 L  BC.p0_upper_126
 L  BC.p0_upper_127
 L  BC.p0_upper_128
 L  BC.p0_upper_129
 L  BC.p0_upper_130
 L  BC.p0_upper_131
 L  BC.p0_upper_132
 L  BC.p0_upper_133
 L  BC.p0_upper_134
 L  BC.p0_upper_135
 L  BC.p0_upper_136
 L  BC.p0_upper_137
 L  BC.p0_upper_138
 L  BC.p0_upper_139
 L  BC.p0_upper_140
 L  BC.p0_upper_141
 L  BC.p0_upper_142
 L  BC.p0_upper_143
 L  BC.p0_upper_144
 L  BC.p0_upper_145
 L  BC.p0_upper_146
 L  BC.p0_upper_147
 L  BC.p0_upper_148
 L  BC.p0_upper_149
 L  BC.p0_upper_150
 L  BC.p0_upper_151
 L  BC.p0_upper_152
 L  BC.p0_upper_153
 L  BC.p0_upper_154
 L  BC.p0_upper_155
 L  BC.p0_upper_156
 L  BC.p0_upper_157
 L  BC.p0_upper_158
 L  BC.p0_upper_159
 L  BC.p0_upper_160
 L  BC.p0_upper_161
 L  BC.p0_upper_162
 L  BC.p0_upper_163
 L  BC.p0_upper_164
 L  BC.p0_upper_165
 L  BC.p0_upper_166
 L  BC.p0_upper_167
 G  BC.p0_lower_0
 G  BC.p0_lower_1
 G  BC.p0_lower_2
 G  BC.p0_lower_3
 G  BC.p0_lower_4
 G  BC.p0_lower_5
 G  BC.p0_lower_6
 G  BC.p0_lower_7
 G  BC.p0_lower_8
 G  BC.p0_lower_9
 G  BC.p0_lower_10
 G  BC.p0_lower_11
 G  BC.p0_lower_12
 G  BC.p0_lower_13
 G  BC.p0_lower_14
 G  BC.p0_lower_15
 G  BC.p0_lower_16
 G  BC.p0_lower_17
 G  BC.p0_lower_18
 G  BC.p0_lower_19
 G  BC.p0_lower_20
 G  BC.p0_lower_21
 G  BC.p0_lower_22
 G  BC.p0_lower_23
 G  BC.p0_lower_24
 G  BC.p0_lower_25
 G  BC.p0_lower_26
 G  BC.p0_lower_27
 G  BC.p0_lower_28
 G  BC.p0_lower_29
 G  BC.p0_lower_30
 G  BC.p0_lower_31
 G  BC.p0_lower_32
 G  BC.p0_lower_33
 G  BC.p0_lower_34
 G  BC.p0_lower_35
 G  BC.p0_lower_36
 G  BC.p0_lower_37
 G  BC.p0_lower_38
 G  BC.p0_lower_39
 G  BC.p0_lower_40
 G  BC.p0_lower_41
 G  BC.p0_lower_42
 G  BC.p0_lower_43
 G  BC.p0_lower_44
 G  BC.p0_lower_45
 G  BC.p0_lower_46
 G  BC.p0_lower_47
 G  BC.p0_lower_48
 G  BC.p0_lower_49
 G  BC.p0_lower_50
 G  BC.p0_lower_51
 G  BC.p0_lower_52
 G  BC.p0_lower_53
 G  BC.p0_lower_54
 G  BC.p0_lower_55
 G  BC.p0_lower_56
 G  BC.p0_lower_57
 G  BC.p0_lower_58
 G  BC.p0_lower_59
 G  BC.p0_lower_60
 G  BC.p0_lower_61
 G  BC.p0_lower_62
 G  BC.p0_lower_63
 G  BC.p0_lower_64
 G  BC.p0_lower_65
 G  BC.p0_lower_66
 G  BC.p0_lower_67
 G  BC.p0_lower_68
 G  BC.p0_lower_69
 G  BC.p0_lower_70
 G  BC.p0_lower_71
 G  BC.p0_lower_72
 G  BC.p0_lower_73
 G  BC.p0_lower_74
 G  BC.p0_lower_75
 G  BC.p0_lower_76
 G  BC.p0_lower_77
 G  BC.p0_lower_78
 G  BC.p0_lower_79
 G  BC.p0_lower_80
 G  BC.p0_lower_81
 G  BC.p0_lower_82
 G  BC.p0_lower_83
 G  BC.p0_lower_84
 G  BC.p0_lower_85
 G  BC.p0_lower_86
 G  BC.p0_lower_87
 G  BC.p0_lower_88
 G  BC.p0_lower_89
 G  BC.p0_lower_90
 G  BC.p0_lower_91
 G  BC.p0_lower_92
 G  BC.p0_lower_93
 G  BC.p0_lower_94
 G  BC.p0_lower_95
 G  BC.p0_lower_96
 G  BC.p0_lower_97
 G  BC.p0_lower_98
 G  BC.p0_lower_99
 G  BC.p0_lower_100
 G  BC.p0_lower_101
 G  BC.p0_lower_102
 G  BC.p0_lower_103
 G  BC.p0_lower_104
 G  BC.p0_lower_105
 G  BC.p0_lower_106
 G  BC.p0_lower_107
 G  BC.p0_lower_108
 G  BC.p0_lower_109
 G  BC.p0_lower_110
 G  BC.p0_lower_111
 G  BC.p0_lower_112
 G  BC.p0_lower_113
 G  BC.p0_lower_114
 G  BC.p0_lower_115
 G  BC.p0_lower_116
 G  BC.p0_lower_117
 G  BC.p0_lower_118
 G  BC.p0_lower_119
 G  BC.p0_lower_120
 G  BC.p0_lower_121
 G  BC.p0_lower_122
 G  BC.p0_lower_123
 G  BC.p0_lower_124
 G  BC.p0_lower_125
 G  BC.p0_lower_126
 G  BC.p0_lower_127
 G  BC.p0_lower_128
 G  BC.p0_lower_129
 G  BC.p0_lower_130
 G  BC.p0_lower_131
 G  BC.p0_lower_132
 G  BC.p0_lower_133
 G  BC.p0_lower_134
 G  BC.p0_lower_135
 G  BC.p0_lower_136
 G  BC.p0_lower_137
 G  BC.p0_lower_138
 G  BC.p0_lower_139
 G  BC.p0_lower_140
 G  BC.p0_lower_141
 G  BC.p0_lower_142
 G  BC.p0_lower_143
 G  BC.p0_lower_144
 G  BC.p0_lower_145
 G  BC.p0_lower_146
 G  BC.p0_lower_147
 G  BC.p0_lower_148
 G  BC.p0_lower_149
 G  BC.p0_lower_150
 G  BC.p0_lower_151
 G  BC.p0_lower_152
 G  BC.p0_lower_153
 G  BC.p0_lower_154
 G  BC.p0_lower_155
 G  BC.p0_lower_156
 G  BC.p0_lower_157
 G  BC.p0_lower_158
 G  BC.p0_lower_159
 G  BC.p0_lower_160
 G  BC.p0_lower_161
 G  BC.p0_lower_162
 G  BC.p0_lower_163
 G  BC.p0_lower_164
 G  BC.p0_lower_165
 G  BC.p0_lower_166
 G  BC.p0_lower_167
 L  AC.p0_upper_0
 L  AC.p0_upper_1
 L  AC.p0_upper_2
 L  AC.p0_upper_3
 L  AC.p0_upper_4
 L  AC.p0_upper_5
 L  AC.p0_upper_6
 L  AC.p0_upper_7
 L  AC.p0_upper_8
 L  AC.p0_upper_9
 L  AC.p0_upper_10
 L  AC.p0_upper_11
 L  AC.p0_upper_12
 L  AC.p0_upper_13
 L  AC.p0_upper_14
 L  AC.p0_upper_15
 L  AC.p0_upper_16
 L  AC.p0_upper_17
 L  AC.p0_upper_18
 L  AC.p0_upper_19
 L  AC.p0_upper_20
 L  AC.p0_upper_21
 L  AC.p0_upper_22
 L  AC.p0_upper_23
 L  AC.p0_upper_24
 L  AC.p0_upper_25
 L  AC.p0_upper_26
 L  AC.p0_upper_27
 L  AC.p0_upper_28
 L  AC.p0_upper_29
 L  AC.p0_upper_30
 L  AC.p0_upper_31
 L  AC.p0_upper_32
 L  AC.p0_upper_33
 L  AC.p0_upper_34
 L  AC.p0_upper_35
 L  AC.p0_upper_36
 L  AC.p0_upper_37
 L  AC.p0_upper_38
 L  AC.p0_upper_39
 L  AC.p0_upper_40
 L  AC.p0_upper_41
 L  AC.p0_upper_42
 L  AC.p0_upper_43
 L  AC.p0_upper_44
 L  AC.p0_upper_45
 L  AC.p0_upper_46
 L  AC.p0_upper_47
 L  AC.p0_upper_48
 L  AC.p0_upper_49
 L  AC.p0_upper_50
 L  AC.p0_upper_51
 L  AC.p0_upper_52
 L  AC.p0_upper_53
 L  AC.p0_upper_54
 L  AC.p0_upper_55
 L  AC.p0_upper_56
 L  AC.p0_upper_57
 L  AC.p0_upper_58
 L  AC.p0_upper_59
 L  AC.p0_upper_60
 L  AC.p0_upper_61
 L  AC.p0_upper_62
 L  AC.p0_upper_63
 L  AC.p0_upper_64
 L  AC.p0_upper_65
 L  AC.p0_upper_66
 L  AC.p0_upper_67
 L  AC.p0_upper_68
 L  AC.p0_upper_69
 L  AC.p0_upper_70
 L  AC.p0_upper_71
 L  AC.p0_upper_72
 L  AC.p0_upper_73
 L  AC.p0_upper_74
 L  AC.p0_upper_75
 L  AC.p0_upper_76
 L  AC.p0_upper_77
 L  AC.p0_upper_78
 L  AC.p0_upper_79
 L  AC.p0_upper_80
 L  AC.p0_upper_81
 L  AC.p0_upper_82
 L  AC.p0_upper_83
 L  AC.p0_upper_84
 L  AC.p0_upper_85
 L  AC.p0_upper_86
 L  AC.p0_upper_87
 L  AC.p0_upper_88
 L  AC.p0_upper_89
 L  AC.p0_upper_90
 L  AC.p0_upper_91
 L  AC.p0_upper_92
 L  AC.p0_upper_93
 L  AC.p0_upper_94
 L  AC.p0_upper_95
 L  AC.p0_upper_96
 L  AC.p0_upper_97
 L  AC.p0_upper_98
 L  AC.p0_upper_99
 L  AC.p0_upper_100
 L  AC.p0_upper_101
 L  AC.p0_upper_102
 L  AC.p0_upper_103
 L  AC.p0_upper_104
 L  AC.p0_upper_105
 L  AC.p0_upper_106
 L  AC.p0_upper_107
 L  AC.p0_upper_108
 L  AC.p0_upper_109
 L  AC.p0_upper_110
 L  AC.p0_upper_111
 L  AC.p0_upper_112
 L  AC.p0_upper_113
 L  AC.p0_upper_114
 L  AC.p0_upper_115
 L  AC.p0_upper_116
 L  AC.p0_upper_117
 L  AC.p0_upper_118
 L  AC.p0_upper_119
 L  AC.p0_upper_120
 L  AC.p0_upper_121
 L  AC.p0_upper_122
 L  AC.p0_upper_123
 L  AC.p0_upper_124
 L  AC.p0_upper_125
 L  AC.p0_upper_126
 L  AC.p0_upper_127
 L  AC.p0_upper_128
 L  AC.p0_upper_129
 L  AC.p0_upper_130
 L  AC.p0_upper_131
 L  AC.p0_upper_132
 L  AC.p0_upper_133
 L  AC.p0_upper_134
 L  AC.p0_upper_135
 L  AC.p0_upper_136
 L  AC.p0_upper_137
 L  AC.p0_upper_138
 L  AC.p0_upper_139
 L  AC.p0_upper_140
 L  AC.p0_upper_141
 L  AC.p0_upper_142
 L  AC.p0_upper_143
 L  AC.p0_upper_144
 L  AC.p0_upper_145
 L  AC.p0_upper_146
 L  AC.p0_upper_147
 L  AC.p0_upper_148
 L  AC.p0_upper_149
 L  AC.p0_upper_150
 L  AC.p0_upper_151
 L  AC.p0_upper_152
 L  AC.p0_upper_153
 L  AC.p0_upper_154
 L  AC.p0_upper_155
 L  AC.p0_upper_156
 L  AC.p0_upper_157
 L  AC.p0_upper_158
 L  AC.p0_upper_159
 L  AC.p0_upper_160
 L  AC.p0_upper_161
 L  AC.p0_upper_162
 L  AC.p0_upper_163
 L  AC.p0_upper_164
 L  AC.p0_upper_165
 L  AC.p0_upper_166
 L  AC.p0_upper_167
 G  AC.p0_lower_0
 G  AC.p0_lower_1
 G  AC.p0_lower_2
 G  AC.p0_lower_3
 G  AC.p0_lower_4
 G  AC.p0_lower_5
 G  AC.p0_lower_6
 G  AC.p0_lower_7
 G  AC.p0_lower_8
 G  AC.p0_lower_9
 G  AC.p0_lower_10
 G  AC.p0_lower_11
 G  AC.p0_lower_12
 G  AC.p0_lower_13
 G  AC.p0_lower_14
 G  AC.p0_lower_15
 G  AC.p0_lower_16
 G  AC.p0_lower_17
 G  AC.p0_lower_18
 G  AC.p0_lower_19
 G  AC.p0_lower_20
 G  AC.p0_lower_21
 G  AC.p0_lower_22
 G  AC.p0_lower_23
 G  AC.p0_lower_24
 G  AC.p0_lower_25
 G  AC.p0_lower_26
 G  AC.p0_lower_27
 G  AC.p0_lower_28
 G  AC.p0_lower_29
 G  AC.p0_lower_30
 G  AC.p0_lower_31
 G  AC.p0_lower_32
 G  AC.p0_lower_33
 G  AC.p0_lower_34
 G  AC.p0_lower_35
 G  AC.p0_lower_36
 G  AC.p0_lower_37
 G  AC.p0_lower_38
 G  AC.p0_lower_39
 G  AC.p0_lower_40
 G  AC.p0_lower_41
 G  AC.p0_lower_42
 G  AC.p0_lower_43
 G  AC.p0_lower_44
 G  AC.p0_lower_45
 G  AC.p0_lower_46
 G  AC.p0_lower_47
 G  AC.p0_lower_48
 G  AC.p0_lower_49
 G  AC.p0_lower_50
 G  AC.p0_lower_51
 G  AC.p0_lower_52
 G  AC.p0_lower_53
 G  AC.p0_lower_54
 G  AC.p0_lower_55
 G  AC.p0_lower_56
 G  AC.p0_lower_57
 G  AC.p0_lower_58
 G  AC.p0_lower_59
 G  AC.p0_lower_60
 G  AC.p0_lower_61
 G  AC.p0_lower_62
 G  AC.p0_lower_63
 G  AC.p0_lower_64
 G  AC.p0_lower_65
 G  AC.p0_lower_66
 G  AC.p0_lower_67
 G  AC.p0_lower_68
 G  AC.p0_lower_69
 G  AC.p0_lower_70
 G  AC.p0_lower_71
 G  AC.p0_lower_72
 G  AC.p0_lower_73
 G  AC.p0_lower_74
 G  AC.p0_lower_75
 G  AC.p0_lower_76
 G  AC.p0_lower_77
 G  AC.p0_lower_78
 G  AC.p0_lower_79
 G  AC.p0_lower_80
 G  AC.p0_lower_81
 G  AC.p0_lower_82
 G  AC.p0_lower_83
 G  AC.p0_lower_84
 G  AC.p0_lower_85
 G  AC.p0_lower_86
 G  AC.p0_lower_87
 G  AC.p0_lower_88
 G  AC.p0_lower_89
 G  AC.p0_lower_90
 G  AC.p0_lower_91
 G  AC.p0_lower_92
 G  AC.p0_lower_93
 G  AC.p0_lower_94
 G  AC.p0_lower_95
 G  AC.p0_lower_96
 G  AC.p0_lower_97
 G  AC.p0_lower_98
 G  AC.p0_lower_99
 G  AC.p0_lower_100
 G  AC.p0_lower_101
 G  AC.p0_lower_102
 G  AC.p0_lower_103
 G  AC.p0_lower_104
 G  AC.p0_lower_105
 G  AC.p0_lower_106
 G  AC.p0_lower_107
 G  AC.p0_lower_108
 G  AC.p0_lower_109
 G  AC.p0_lower_110
 G  AC.p0_lower_111
 G  AC.p0_lower_112
 G  AC.p0_lower_113
 G  AC.p0_lower_114
 G  AC.p0_lower_115
 G  AC.p0_lower_116
 G  AC.p0_lower_117
 G  AC.p0_lower_118
 G  AC.p0_lower_119
 G  AC.p0_lower_120
 G  AC.p0_lower_121
 G  AC.p0_lower_122
 G  AC.p0_lower_123
 G  AC.p0_lower_124
 G  AC.p0_lower_125
 G  AC.p0_lower_126
 G  AC.p0_lower_127
 G  AC.p0_lower_128
 G  AC.p0_lower_129
 G  AC.p0_lower_130
 G  AC.p0_lower_131
 G  AC.p0_lower_132
 G  AC.p0_lower_133
 G  AC.p0_lower_134
 G  AC.p0_lower_135
 G  AC.p0_lower_136
 G  AC.p0_lower_137
 G  AC.p0_lower_138
 G  AC.p0_lower_139
 G  AC.p0_lower_140
 G  AC.p0_lower_141
 G  AC.p0_lower_142
 G  AC.p0_lower_143
 G  AC.p0_lower_144
 G  AC.p0_lower_145
 G  AC.p0_lower_146
 G  AC.p0_lower_147
 G  AC.p0_lower_148
 G  AC.p0_lower_149
 G  AC.p0_lower_150
 G  AC.p0_lower_151
 G  AC.p0_lower_152
 G  AC.p0_lower_153
 G  AC.p0_lower_154
 G  AC.p0_lower_155
 G  AC.p0_lower_156
 G  AC.p0_lower_157
 G  AC.p0_lower_158
 G  AC.p0_lower_159
 G  AC.p0_lower_160
 G  AC.p0_lower_161
 G  AC.p0_lower_162
 G  AC.p0_lower_163
 G  AC.p0_lower_164
 G  AC.p0_lower_165
 G  AC.p0_lower_166
 G  AC.p0_lower_167
COLUMNS
    G_A.p_nom             G_A.max_dispatch_0        -1  G_A.max_dispatch_1        -1
    G_A.p_nom             G_A.max_dispatch_2        -1  G_A.max_dispatch_3        -1
    G_A.p_nom             G_A.max_dispatch_4        -1  G_A.max_dispatch_5        -1
    G_A.p_nom             G_A.max_dispatch_6        -1  G_A.max_dispatch_7        -1
    G_A.p_nom             G_A.max_dispatch_8        -1  G_A.max_dispatch_9        -1
    G_A.p_nom             G_A.max_dispatch_10       -1  G_A.max_dispatch_11       -1
    G_A.p_nom             G_A.max_dispatch_12       -1  G_A.max_dispatch_13       -1
    G_A.p_nom             G_A.max_dispatch_14       -1  G_A.max_dispatch_15       -1
    G_A.p_nom             G_A.max_dispatch_16       -1  G_A.max_dispatch_17       -1
    G_A.p_nom             G_A.max_dispatch_18       -1  G_A.max_dispatch_19       -1
    G_A.p_nom             G_A.max_dispatch_20       -1  G_A.max_dispatch_21       -1
    G_A.p_nom             G_A.max_dispatch_22       -1  G_A.max_dispatch_23       -1
    G_A.p_nom             G_A.max_dispatch_24       -1  G_A.max_dispatch_25       -1
    G_A.p_nom             G_A.max_dispatch_26       -1  G_A.max_dispatch_27       -1
    G_A.p_nom             G_A.max_dispatch_28       -1  G_A.max_dispatch_29       -1
    G_A.p_nom             G_A.max_dispatch_30       -1  G_A.max_dispatch_31       -1
    G_A.p_nom             G_A.max_dispatch_32       -1  G_A.max_dispatch_33       -1
    G_A.p_nom             G_A.max_dispatch_34       -1  G_A.max_dispatch_35       -1
    G_A.p_nom             G_A.max_dispatch_36       -1  G_A.max_dispatch_37       -1
    G_A.p_nom             G_A.max_dispatch_38       -1  G_A.max_dispatch_39       -1
    G_A.p_nom             G_A.max_dispatch_40       -1  G_A.max_dispatch_41       -1
    G_A.p_nom             G_A.max_dispatch_42       -1  G_A.max_dispatch_43       -1
    G_A.p_nom             G_A.max_dispatch_44       -1  G_A.max_dispatch_45       -1
    G_A.p_nom             G_A.max_dispatch_46       -1  G_A.max_dispatch_47       -1
    G_A.p_nom             G_A.max_dispatch_48       -1  G_A.max_dispatch_49       -1
    G_A.p_nom             G_A.max_dispatch_50       -1  G_A.max_dispatch_51       -1
    G_A.p_nom             G_A.max_dispatch_52       -1  G_A.max_dispatch_53       -1
    G_A.p_nom             G_A.max_dispatch_54       -1  G_A.max_dispatch_55       -1
    G_A.p_nom             G_A.max_dispatch_56       -1  G_A.max_dispatch_57       -1
    G_A.p_nom             G_A.max_dispatch_58       -1  G_A.max_dispatch_59       -1
    G_A.p_nom             G_A.max_dispatch_60       -1  G_A.max_dispatch_61       -1
    G_A.p_nom             G_A.max_dispatch_62       -1  G_A.max_dispatch_63       -1
    G_A.p_nom             G_A.max_dispatch_64       -1  G_A.max_dispatch_65       -1
    G_A.p_nom             G_A.max_dispatch_66       -1  G_A.max_dispatch_67       -1
    G_A.p_nom             G_A.max_dispatch_68       -1  G_A.max_dispatch_69       -1
    G_A.p_nom             G_A.max_dispatch_70       -1  G_A.max_dispatch_71       -1
    G_A.p_nom             G_A.max_dispatch_72       -1  G_A.max_dispatch_73       -1
    G_A.p_nom             G_A.max_dispatch_74       -1  G_A.max_dispatch_75       -1
    G_A.p_nom             G_A.max_dispatch_76       -1  G_A.max_dispatch_77       -1
    G_A.p_nom             G_A.max_dispatch_78       -1  G_A.max_dispatch_79       -1
    G_A.p_nom             G_A.max_dispatch_80       -1  G_A.max_dispatch_81       -1
    G_A.p_nom             G_A.max_dispatch_82       -1  G_A.max_dispatch_83       -1
    G_A.p_nom             G_A.max_dispatch_84       -1  G_A.max_dispatch_85       -1
    G_A.p_nom             G_A.max_dispatch_86       -1  G_A.max_dispatch_87       -1
    G_A.p_nom             G_A.max_dispatch_88       -1  G_A.max_dispatch_89       -1
    G_A.p_nom             G_A.max_dispatch_90       -1  G_A.max_dispatch_91       -1
    G_A.p_nom             G_A.max_dispatch_92       -1  G_A.max_dispatch_93       -1
    G_A.p_nom             G_A.max_dispatch_94       -1  G_A.max_dispatch_95       -1
    G_A.p_nom             G_A.max_dispatch_96       -1  G_A.max_dispatch_97       -1
    G_A.p_nom             G_A.max_dispatch_98       -1  G_A.max_dispatch_99       -1
    G_A.p_nom             G_A.max_dispatch_100      -1  G_A.max_dispatch_101      -1
    G_A.p_nom             G_A.max_dispatch_102      -1  G_A.max_dispatch_103      -1
    G_A.p_nom             G_A.max_dispatch_104      -1  G_A.max_dispatch_105      -1
    G_A.p_nom             G_A.max_dispatch_106      -1  G_A.max_dispatch_107      -1
    G_A.p_nom             G_A.max_dispatch_108      -1  G_A.max_dispatch_109      -1
    G_A.p_nom             G_A.max_dispatch_110      -1  G_A.max_dispatch_111      -1
    G_A.p_nom             G_A.max_dispatch_112      -1  G_A.max_dispatch_113      -1
    G_A.p_nom             G_A.max_dispatch_114      -1  G_A.max_dispatch_115      -1
    G_A.p_nom             G_A.max_dispatch_116      -1  G_A.max_dispatch_117      -1
    G_A.p_nom             G_A.max_dispatch_118      -1  G_A.max_dispatch_119      -1
    G_A.p_nom             G_A.max_dispatch_120      -1  G_A.max_dispatch_121      -1
    G_A.p_nom             G_A.max_dispatch_122      -1  G_A.max_dispatch_123      -1
    G_A.p_nom             G_A.max_dispatch_124      -1  G_A.max_dispatch_125      -1
    G_A.p_nom             G_A.max_dispatch_126      -1  G_A.max_dispatch_127      -1
    G_A.p_nom             G_A.max_dispatch_128      -1  G_A.max_dispatch_129      -1
    G_A.p_nom             G_A.max_dispatch_130      -1  G_A.max_dispatch_131      -1
    G_A.p_nom             G_A.max_dispatch_132      -1  G_A.max_dispatch_133      -1
    G_A.p_nom             G_A.max_dispatch_134      -1  G_A.max_dispatch_135      -1
    G_A.p_nom             G_A.max_dispatch_136      -1  G_A.max_dispatch_137      -1
    G_A.p_nom             G_A.max_dispatch_138      -1  G_A.max_dispatch_139      -1
    G_A.p_nom             G_A.max_dispatch_140      -1  G_A.max_dispatch_141      -1
    G_A.p_nom             G_A.max_dispatch_142      -1  G_A.max_dispatch_143      -1
    G_A.p_nom             G_A.max_dispatch_144      -1  G_A.max_dispatch_145      -1
    G_A.p_nom             G_A.max_dispatch_146      -1  G_A.max_dispatch_147      -1
    G_A.p_nom             G_A.max_dispatch_148      -1  G_A.max_dispatch_149      -1
    G_A.p_nom             G_A.max_dispatch_150      -1  G_A.max_dispatch_151      -1
    G_A.p_nom             G_A.max_dispatch_152      -1  G_A.max_dispatch_153      -1
    G_A.p_nom             G_A.max_dispatch_154      -1  G_A.max_dispatch_155      -1
    G_A.p_nom             G_A.max_dispatch_156      -1  G_A.max_dispatch_157      -1
    G_A.p_nom             G_A.max_dispatch_158      -1  G_A.max_dispatch_159      -1
    G_A.p_nom             G_A.max_dispatch_160      -1  G_A.max_dispatch_161      -1
    G_A.p_nom             G_A.max_dispatch_162      -1  G_A.max_dispatch_163      -1
    G_A.p_nom             G_A.max_dispatch_164      -1  G_A.max_dispatch_165      -1
    G_A.p_nom             G_A.max_dispatch_166      -1  G_A.max_dispatch_167      -1
    G_A.p_s0_t0           COST                      10  A.p_balance_0              1
    G_A.p_s0_t0           G_A.min_dispatch_0         1  G_A.max_dispatch_0         1
    G_A.p_s0_t0           G_A.min_production         1  G_A.max_production         1
    G_A.p_s0_t1           COST                      10  A.p_balance_1              1
    G_A.p_s0_t1           G_A.min_dispatch_1         1  G_A.max_dispatch_1         1
    G_A.p_s0_t1           G_A.min_production         1  G_A.max_production         1
    G_A.p_s0_t2           COST                      10  A.p_balance_2              1
    G_A.p_s0_t2           G_A.min_dispatch_2         1  G_A.max_dispatch_2         1
    G_A.p_s0_t2           G_A.min_production         1  G_A.max_production         1
    G_A.p_s0_t3           COST                      10  A.p_balance_3              1
    G_A.p_s0_t3           G_A.min_dispatch_3         1  G_A.max_dispatch_3         1
    G_A.p_s0_t3           G_A.min_production         1  G_A.max_production         1
    G_A.p_s0_t4           COST                      10  A.p_balance_4              1
    G_A.p_s0_t4           G_A.min_dispatch_4         1  G_A.max_dispatch_4         1
    G_A.p_s0_t4           G_A.min_production         1  G_A.max_production         1
    G_A.p_s0_t5           COST                      10  A.p_balance_5              1
    G_A.p_s0_t5           G_A.min_dispatch_5         1  G_A.max_dispatch_5         1
    G_A.p_s0_t5           G_A.min_production         1  G_A.max_production         1
    G_A.p_s0_t6           COST                      10  A.p_balance_6              1
    G_A.p_s0_t6           G_A.min_dispatch_6         1  G_A.max_dispatch_6         1
    G_A.p_s0_t6           G_A.min_production         1  G_A.max_production         1
    G_A.p_s0_t7           COST                      10  A.p_balance_7              1
    G_A.p_s0_t7           G_A.min_dispatch_7         1  G_A.max_dispatch_7         1
    G_A.p_s0_t7           G_A.min_production         1  G_A.max_production         1
    G_A.p_s0_t8           COST                      10  A.p_balance_8              1
    G_A.p_s0_t8           G_A.min_dispatch_8         1  G_A.max_dispatch_8         1
    G_A.p_s0_t8           G_A.min_production         1  G_A.max_production         1
    G_A.p_s0_t9           COST                      10  A.p_balance_9              1
    G_A.p_s0_t9           G_A.min_dispatch_9         1  G_A.max_dispatch_9         1
    G_A.p_s0_t9           G_A.min_production         1  G_A.max_production         1
    G_A.p_s0_t10          COST                      10  A.p_balance_10             1
    G_A.p_s0_t10          G_A.min_dispatch_10        1  G_A.max_dispatch_10        1
    G_A.p_s0_t10          G_A.min_production         1  G_A.max_production         1
    G_A.p_s0_t11          COST                      10  A.p_balance_11             1
    G_A.p_s0_t11          G_A.min_dispatch_11        1  G_A.max_dispatch_11        1
    G_A.p_s0_t11          G_A.min_production         1  G_A.max_production         1
    G_A.p_s0_t12          COST                      10  A.p_balance_12             1
    G_A.p_s0_t12          G_A.min_dispatch_12        1  G_A.max_dispatch_12        1
    G_A.p_s0_t12          G_A.min_production         1  G_A.max_production         1
    G_A.p_s0_t13          COST                      10  A.p_balance_13             1
    G_A.p_s0_t13          G_A.min_dispatch_13        1  G_A.max_dispatch_13        1
    G_A.p_s0_t13          G_A.min_production         1  G_A.max_production         1
    G_A.p_s0_t14          COST                      10  A.p_balance_14             1
    G_A.p_s0_t14          G_A.min_dispatch_14        1  G_A.max_dispatch_14        1
    G_A.p_s0_t14          G_A.min_production         1  G_A.max_production         1
    G_A.p_s0_t15          COST                      10  A.p_balance_15             1
    G_A.p_s0_t15          G_A.min_dispatch_15        1  G_A.max_dispatch_15        1
    G_A.p_s0_t15          G_A.min_production         1  G_A.max_production         1
    G_A.p_s0_t16          COST                      10  A.p_balance_16             1
    G_A.p_s0_t16          G_A.min_dispatch_16        1  G_A.max_dispatch_16        1
    G_A.p_s0_t16          G_A.min_production         1  G_A.max_production         1
    G_A.p_s0_t17          COST                      10  A.p_balance_17             1
    G_A.p_s0_t17          G_A.min_dispatch_17        1  G_A.max_dispatch_17        1
    G_A.p_s0_t17          G_A.min_production         1  G_A.max_production         1
    G_A.p_s0_t18          COST                      10  A.p_balance_18             1
    G_A.p_s0_t18          G_A.min_dispatch_18        1  G_A.max_dispatch_18        1
    G_A.p_s0_t18          G_A.min_production         1  G_A.max_production         1
    G_A.p_s0_t19          COST                      10  A.p_balance_19             1
    G_A.p_s0_t19          G_A.min_dispatch_19        1  G_A.max_dispatch_19        1
    G_A.p_s0_t19          G_A.min_production         1  G_A.max_production         1
    G_A.p_s0_t20          COST                      10  A.p_balance_20             1
    G_A.p_s0_t20          G_A.min_dispatch_20        1  G_A.max_dispatch_20        1
    G_A.p_s0_t20          G_A.min_production         1  G_A.max_production         1
    G_A.p_s0_t21          COST                      10  A.p_balance_21             1
    G_A.p_s0_t21          G_A.min_dispatch_21        1  G_A.max_dispatch_21        1
    G_A.p_s0_t21          G_A.min_production         1  G_A.max_production         1
    G_A.p_s0_t22          COST                      10  A.p_balance_22             1
    G_A.p_s0_t22          G_A.min_dispatch_22        1  G_A.max_dispatch_22        1
    G_A.p_s0_t22          G_A.min_production         1  G_A.max_production         1
    G_A.p_s0_t23          COST                      10  A.p_balance_23             1
    G_A.p_s0_t23          G_A.min_dispatch_23        1  G_A.max_dispatch_23        1
    G_A.p_s0_t23          G_A.min_production         1  G_A.max_production         1
    G_A.p_s0_t24          COST                      10  A.p_balance_24             1
    G_A.p_s0_t24          G_A.min_dispatch_24        1  G_A.max_dispatch_24        1
    G_A.p_s0_t24          G_A.min_production         1  G_A.max_production         1
    G_A.p_s0_t25          COST                      10  A.p_balance_25             1
    G_A.p_s0_t25          G_A.min_dispatch_25        1  G_A.max_dispatch_25        1
    G_A.p_s0_t25          G_A.min_production         1  G_A.max_production         1
    G_A.p_s0_t26          COST                      10  A.p_balance_26             1
    G_A.p_s0_t26          G_A.min_dispatch_26        1  G_A.max_dispatch_26        1
    G_A.p_s0_t26          G_A.min_production         1  G_A.max_production         1
    G_A.p_s0_t27          COST                      10  A.p_balance_27             1
    G_A.p_s0_t27          G_A.min_dispatch_27        1  G_A.max_dispatch_27        1
    G_A.p_s0_t27          G_A.min_production         1  G_A.max_production         1
    G_A.p_s0_t28          COST                      10  A.p_balance_28             1
    G_A.p_s0_t28          G_A.min_dispatch_28        1  G_A.max_dispatch_28        1
    G_A.p_s0_t28          G_A.min_production         1  G_A.max_production         1
    G_A.p_s0_t29          COST                      10  A.p_balance_29             1
    G_A.p_s0_t29          G_A.min_dispatch_29        1  G_A.max_dispatch_29        1
    G_A.p_s0_t29          G_A.min_production         1  G_A.max_production         1
    G_A.p_s0_t30          COST                      10  A.p_balance_30             1
    G_A.p_s0_t30          G_A.min_dispatch_30        1  G_A.max_dispatch_30        1
    G_A.p_s0_t30          G_A.min_production         1  G_A.max_production         1
    G_A.p_s0_t31          COST                      10  A.p_balance_31             1
    G_A.p_s0_t31          G_A.min_dispatch_31        1  G_A.max_dispatch_31        1
    G_A.p_s0_t31          G_A.min_production         1  G_A.max_production         1
    G_A.p_s0_t32          COST                      10  A.p_balance_32             1
    G_A.p_s0_t32          G_A.min_dispatch_32        1  G_A.max_dispatch_32        1
    G_A.p_s0_t32          G_A.min_production         1  G_A.max_production         1
    G_A.p_s0_t33          COST                      10  A.p_balance_33             1
    G_A.p_s0_t33          G_A.min_dispatch_33        1  G_A.max_dispatch_33        1
    G_A.p_s0_t33          G_A.min_production         1  G_A.max_production         1
    G_A.p_s0_t34          COST                      10  A.p_balance_34             1
    G_A.p_s0_t34          G_A.min_dispatch_34        1  G_A.max_dispatch_34        1
    G_A.p_s0_t34          G_A.min_production         1  G_A.max_production         1
    G_A.p_s0_t35          COST                      10  A.p_balance_35             1
    G_A.p_s0_t35          G_A.min_dispatch_35        1  G_A.max_dispatch_35        1
    G_A.p_s0_t35          G_A.min_production         1  G_A.max_production         1
    G_A.p_s0_t36          COST                      10  A.p_balance_36             1
    G_A.p_s0_t36          G_A.min_dispatch_36        1  G_A.max_dispatch_36        1
    G_A.p_s0_t36          G_A.min_production         1  G_A.max_production         1
    G_A.p_s0_t37          COST                      10  A.p_balance_37             1
    G_A.p_s0_t37          G_A.min_dispatch_37        1  G_A.max_dispatch_37        1
    G_A.p_s0_t37          G_A.min_production         1  G_A.max_production         1
    G_A.p_s0_t38          COST                      10  A.p_balance_38             1
    G_A.p_s0_t38          G_A.min_dispatch_38        1  G_A.max_dispatch_38        1
    G_A.p_s0_t38          G_A.min_production         1  G_A.max_production         1
    G_A.p_s0_t39          COST                      10  A.p_balance_39             1
    G_A.p_s0_t39          G_A.min_dispatch_39        1  G_A.max_dispatch_39        1
    G_A.p_s0_t39          G_A.min_production         1  G_A.max_production         1
    G_A.p_s0_t40          COST                      10  A.p_balance_40             1
    G_A.p_s0_t40          G_A.min_dispatch_40        1  G_A.max_dispatch_40        1
    G_A.p_s0_t40          G_A.min_production         1  G_A.max_production         1
    G_A.p_s0_t41          COST                      10  A.p_balance_41             1
    G_A.p_s0_t41          G_A.min_dispatch_41        1  G_A.max_dispatch_41        1
    G_A.p_s0_t41          G_A.min_production         1  G_A.max_production         1
    G_A.p_s0_t42          COST                      10  A.p_balance_42             1
    G_A.p_s0_t42          G_A.min_dispatch_42        1  G_A.max_dispatch_42        1
    G_A.p_s0_t42          G_A.min_production         1  G_A.max_production         1
    G_A.p_s0_t43          COST                      10  A.p_balance_43             1
    G_A.p_s0_t43          G_A.min_dispatch_43        1  G_A.max_dispatch_43        1
    G_A.p_s0_t43          G_A.min_production         1  G_A.max_production         1
    G_A.p_s0_t44          COST                      10  A.p_balance_44             1
    G_A.p_s0_t44          G_A.min_dispatch_44        1  G_A.max_dispatch_44        1
    G_A.p_s0_t44          G_A.min_production         1  G_A.max_production         1
    G_A.p_s0_t45          COST                      10  A.p_balance_45             1
    G_A.p_s0_t45          G_A.min_dispatch_45        1  G_A.max_dispatch_45        1
    G_A.p_s0_t45          G_A.min_production         1  G_A.max_production         1
    G_A.p_s0_t46          COST                      10  A.p_balance_46             1
    G_A.p_s0_t46          G_A.min_dispatch_46        1  G_A.max_dispatch_46        1
    G_A.p_s0_t46          G_A.min_production         1  G_A.max_production         1
    G_A.p_s0_t47          COST                      10  A.p_balance_47             1
    G_A.p_s0_t47          G_A.min_dispatch_47        1  G_A.max_dispatch_47        1
    G_A.p_s0_t47          G_A.min_production         1  G_A.max_production         1
    G_A.p_s0_t48          COST                      10  A.p_balance_48             1
    G_A.p_s0_t48          G_A.min_dispatch_48        1  G_A.max_dispatch_48        1
    G_A.p_s0_t48          G_A.min_production         1  G_A.max_production         1
    G_A.p_s0_t49          COST                      10  A.p_balance_49             1
    G_A.p_s0_t49          G_A.min_dispatch_49        1  G_A.max_dispatch_49        1
    G_A.p_s0_t49          G_A.min_production         1  G_A.max_production         1
    G_A.p_s0_t50          COST                      10  A.p_balance_50             1
    G_A.p_s0_t50          G_A.min_dispatch_50        1  G_A.max_dispatch_50        1
    G_A.p_s0_t50          G_A.min_production         1  G_A.max_production         1
    G_A.p_s0_t51          COST                      10  A.p_balance_51             1
    G_A.p_s0_t51          G_A.min_dispatch_51        1  G_A.max_dispatch_51        1
    G_A.p_s0_t51          G_A.min_production         1  G_A.max_production         1
    G_A.p_s0_t52          COST                      10  A.p_balance_52             1
    G_A.p_s0_t52          G_A.min_dispatch_52        1  G_A.max_dispatch_52        1
    G_A.p_s0_t52          G_A.min_production         1  G_A.max_production         1
    G_A.p_s0_t53          COST                      10  A.p_balance_53             1
    G_A.p_s0_t53          G_A.min_dispatch_53        1  G_A.max_dispatch_53        1
    G_A.p_s0_t53          G_A.min_production         1  G_A.max_production         1
    G_A.p_s0_t54          COST                      10  A.p_balance_54             1
    G_A.p_s0_t54          G_A.min_dispatch_54        1  G_A.max_dispatch_54        1
    G_A.p_s0_t54          G_A.min_production         1  G_A.max_production         1
    G_A.p_s0_t55          COST                      10  A.p_balance_55             1
    G_A.p_s0_t55          G_A.min_dispatch_55        1  G_A.max_dispatch_55        1
    G_A.p_s0_t55          G_A.min_production         1  G_A.max_production         1
    G_A.p_s0_t56          COST                      10  A.p_balance_56             1
    G_A.p_s0_t56          G_A.min_dispatch_56        1  G_A.max_dispatch_56        1
    G_A.p_s0_t56          G_A.min_production         1  G_A.max_production         1
    G_A.p_s0_t57          COST                      10  A.p_balance_57             1
    G_A.p_s0_t57          G_A.min_dispatch_57        1  G_A.max_dispatch_57        1
    G_A.p_s0_t57          G_A.min_production         1  G_A.max_production         1
    G_A.p_s0_t58          COST                      10  A.p_balance_58             1
    G_A.p_s0_t58          G_A.min_dispatch_58        1  G_A.max_dispatch_58        1
    G_A.p_s0_t58          G_A.min_production         1  G_A.max_production         1
    G_A.p_s0_t59          COST                      10  A.p_balance_59             1
    G_A.p_s0_t59          G_A.min_dispatch_59        1  G_A.max_dispatch_59        1
    G_A.p_s0_t59          G_A.min_production         1  G_A.max_production         1
    G_A.p_s0_t60          COST                      10  A.p_balance_60             1
    G_A.p_s0_t60          G_A.min_dispatch_60        1  G_A.max_dispatch_60        1
    G_A.p_s0_t60          G_A.min_production         1  G_A.max_production         1
    G_A.p_s0_t61          COST                      10  A.p_balance_61             1
    G_A.p_s0_t61          G_A.min_dispatch_61        1  G_A.max_dispatch_61        1
    G_A.p_s0_t61          G_A.min_production         1  G_A.max_production         1
    G_A.p_s0_t62          COST                      10  A.p_balance_62             1
    G_A.p_s0_t62          G_A.min_dispatch_62        1  G_A.max_dispatch_62        1
    G_A.p_s0_t62          G_A.min_production         1  G_A.max_production         1
    G_A.p_s0_t63          COST                      10  A.p_balance_63             1
    G_A.p_s0_t63          G_A.min_dispatch_63        1  G_A.max_dispatch_63        1
    G_A.p_s0_t63          G_A.min_production         1  G_A.max_production         1
    G_A.p_s0_t64          COST                      10  A.p_balance_64             1
    G_A.p_s0_t64          G_A.min_dispatch_64        1  G_A.max_dispatch_64        1
    G_A.p_s0_t64          G_A.min_production         1  G_A.max_production         1
    G_A.p_s0_t65          COST                      10  A.p_balance_65             1
    G_A.p_s0_t65          G_A.min_dispatch_65        1  G_A.max_dispatch_65        1
    G_A.p_s0_t65          G_A.min_production         1  G_A.max_production         1
    G_A.p_s0_t66          COST                      10  A.p_balance_66             1
    G_A.p_s0_t66          G_A.min_dispatch_66        1  G_A.max_dispatch_66        1
    G_A.p_s0_t66          G_A.min_production         1  G_A.max_production         1
    G_A.p_s0_t67          COST                      10  A.p_balance_67             1
    G_A.p_s0_t67          G_A.min_dispatch_67        1  G_A.max_dispatch_67        1
    G_A.p_s0_t67          G_A.min_production         1  G_A.max_production         1
    G_A.p_s0_t68          COST                      10  A.p_balance_68             1
    G_A.p_s0_t68          G_A.min_dispatch_68        1  G_A.max_dispatch_68        1
    G_A.p_s0_t68          G_A.min_production         1  G_A.max_production         1
    G_A.p_s0_t69          COST                      10  A.p_balance_69             1
    G_A.p_s0_t69          G_A.min_dispatch_69        1  G_A.max_dispatch_69        1
    G_A.p_s0_t69          G_A.min_production         1  G_A.max_production         1
    G_A.p_s0_t70          COST                      10  A.p_balance_70             1
    G_A.p_s0_t70          G_A.min_dispatch_70        1  G_A.max_dispatch_70        1
    G_A.p_s0_t70          G_A.min_production         1  G_A.max_production         1
    G_A.p_s0_t71          COST                      10  A.p_balance_71             1
    G_A.p_s0_t71          G_A.min_dispatch_71        1  G_A.max_dispatch_71        1
    G_A.p_s0_t71          G_A.min_production         1  G_A.max_production         1
    G_A.p_s0_t72          COST                      10  A.p_balance_72             1
    G_A.p_s0_t72          G_A.min_dispatch_72        1  G_A.max_dispatch_72        1
    G_A.p_s0_t72          G_A.min_production         1  G_A.max_production         1
    G_A.p_s0_t73          COST                      10  A.p_balance_73             1
    G_A.p_s0_t73          G_A.min_dispatch_73        1  G_A.max_dispatch_73        1
    G_A.p_s0_t73          G_A.min_production         1  G_A.max_production         1
    G_A.p_s0_t74          COST                      10  A.p_balance_74             1
    G_A.p_s0_t74          G_A.min_dispatch_74        1  G_A.max_dispatch_74        1
    G_A.p_s0_t74          G_A.min_production         1  G_A.max_production         1
    G_A.p_s0_t75          COST                      10  A.p_balance_75             1
    G_A.p_s0_t75          G_A.min_dispatch_75        1  G_A.max_dispatch_75        1
    G_A.p_s0_t75          G_A.min_production         1  G_A.max_production         1
    G_A.p_s0_t76          COST                      10  A.p_balance_76             1
    G_A.p_s0_t76          G_A.min_dispatch_76        1  G_A.max_dispatch_76        1
    G_A.p_s0_t76          G_A.min_production         1  G_A.max_production         1
    G_A.p_s0_t77          COST                      10  A.p_balance_77             1
    G_A.p_s0_t77          G_A.min_dispatch_77        1  G_A.max_dispatch_77        1
    G_A.p_s0_t77          G_A.min_production         1  G_A.max_production         1
    G_A.p_s0_t78          COST                      10  A.p_balance_78             1
    G_A.p_s0_t78          G_A.min_dispatch_78        1  G_A.max_dispatch_78        1
    G_A.p_s0_t78          G_A.min_production         1  G_A.max_production         1
    G_A.p_s0_t79          COST                      10  A.p_balance_79             1
    G_A.p_s0_t79          G_A.min_dispatch_79        1  G_A.max_dispatch_79        1
    G_A.p_s0_t79          G_A.min_production         1  G_A.max_production         1
    G_A.p_s0_t80          COST                      10  A.p_balance_80             1
    G_A.p_s0_t80          G_A.min_dispatch_80        1  G_A.max_dispatch_80        1
    G_A.p_s0_t80          G_A.min_production         1  G_A.max_production         1
    G_A.p_s0_t81          COST                      10  A.p_balance_81             1
    G_A.p_s0_t81          G_A.min_dispatch_81        1  G_A.max_dispatch_81        1
    G_A.p_s0_t81          G_A.min_production         1  G_A.max_production         1
    G_A.p_s0_t82          COST                      10  A.p_balance_82             1
    G_A.p_s0_t82          G_A.min_dispatch_82        1  G_A.max_dispatch_82        1
    G_A.p_s0_t82          G_A.min_production         1  G_A.max_production         1
    G_A.p_s0_t83          COST                      10  A.p_balance_83             1
    G_A.p_s0_t83          G_A.min_dispatch_83        1  G_A.max_dispatch_83        1
    G_A.p_s0_t83          G_A.min_production         1  G_A.max_production         1
    G_A.p_s0_t84          COST                      10  A.p_balance_84             1
    G_A.p_s0_t84          G_A.min_dispatch_84        1  G_A.max_dispatch_84        1
    G_A.p_s0_t84          G_A.min_production         1  G_A.max_production         1
    G_A.p_s0_t85          COST                      10  A.p_balance_85             1
    G_A.p_s0_t85          G_A.min_dispatch_85        1  G_A.max_dispatch_85        1
    G_A.p_s0_t85          G_A.min_production         1  G_A.max_production         1
    G_A.p_s0_t86          COST                      10  A.p_balance_86             1
    G_A.p_s0_t86          G_A.min_dispatch_86        1  G_A.max_dispatch_86        1
    G_A.p_s0_t86          G_A.min_production         1  G_A.max_production         1
    G_A.p_s0_t87          COST                      10  A.p_balance_87             1
    G_A.p_s0_t87          G_A.min_dispatch_87        1  G_A.max_dispatch_87        1
    G_A.p_s0_t87          G_A.min_production         1  G_A.max_production         1
    G_A.p_s0_t88          COST                      10  A.p_balance_88             1
    G_A.p_s0_t88          G_A.min_dispatch_88        1  G_A.max_dispatch_88        1
    G_A.p_s0_t88          G_A.min_production         1  G_A.max_production         1
    G_A.p_s0_t89          COST                      10  A.p_balance_89             1
    G_A.p_s0_t89          G_A.min_dispatch_89        1  G_A.max_dispatch_89        1
    G_A.p_s0_t89          G_A.min_production         1  G_A.max_production         1
    G_A.p_s0_t90          COST                      10  A.p_balance_90             1
    G_A.p_s0_t90          G_A.min_dispatch_90        1  G_A.max_dispatch_90        1
    G_A.p_s0_t90          G_A.min_production         1  G_A.max_production         1
    G_A.p_s0_t91          COST                      10  A.p_balance_91             1
    G_A.p_s0_t91          G_A.min_dispatch_91        1  G_A.max_dispatch_91        1
    G_A.p_s0_t91          G_A.min_production         1  G_A.max_production         1
    G_A.p_s0_t92          COST                      10  A.p_balance_92             1
    G_A.p_s0_t92          G_A.min_dispatch_92        1  G_A.max_dispatch_92        1
    G_A.p_s0_t92          G_A.min_production         1  G_A.max_production         1
    G_A.p_s0_t93          COST                      10  A.p_balance_93             1
    G_A.p_s0_t93          G_A.min_dispatch_93        1  G_A.max_dispatch_93        1
    G_A.p_s0_t93          G_A.min_production         1  G_A.max_production         1
    G_A.p_s0_t94          COST                      10  A.p_balance_94             1
    G_A.p_s0_t94          G_A.min_dispatch_94        1  G_A.max_dispatch_94        1
    G_A.p_s0_t94          G_A.min_production         1  G_A.max_production         1
    G_A.p_s0_t95          COST                      10  A.p_balance_95             1
    G_A.p_s0_t95          G_A.min_dispatch_95        1  G_A.max_dispatch_95        1
    G_A.p_s0_t95          G_A.min_production         1  G_A.max_production         1
    G_A.p_s0_t96          COST                      10  A.p_balance_96             1
    G_A.p_s0_t96          G_A.min_dispatch_96        1  G_A.max_dispatch_96        1
    G_A.p_s0_t96          G_A.min_production         1  G_A.max_production         1
    G_A.p_s0_t97          COST                      10  A.p_balance_97             1
    G_A.p_s0_t97          G_A.min_dispatch_97        1  G_A.max_dispatch_97        1
    G_A.p_s0_t97          G_A.min_production         1  G_A.max_production         1
    G_A.p_s0_t98          COST                      10  A.p_balance_98             1
    G_A.p_s0_t98          G_A.min_dispatch_98        1  G_A.max_dispatch_98        1
    G_A.p_s0_t98          G_A.min_production         1  G_A.max_production         1
    G_A.p_s0_t99          COST                      10  A.p_balance_99             1
    G_A.p_s0_t99          G_A.min_dispatch_99        1  G_A.max_dispatch_99        1
    G_A.p_s0_t99          G_A.min_production         1  G_A.max_production         1
    G_A.p_s0_t100         COST                      10  A.p_balance_100            1
    G_A.p_s0_t100         G_A.min_dispatch_100       1  G_A.max_dispatch_100       1
    G_A.p_s0_t100         G_A.min_production         1  G_A.max_production         1
    G_A.p_s0_t101         COST                      10  A.p_balance_101            1
    G_A.p_s0_t101         G_A.min_dispatch_101       1  G_A.max_dispatch_101       1
    G_A.p_s0_t101         G_A.min_production         1  G_A.max_production         1
    G_A.p_s0_t102         COST                      10  A.p_balance_102            1
    G_A.p_s0_t102         G_A.min_dispatch_102       1  G_A.max_dispatch_102       1
    G_A.p_s0_t102         G_A.min_production         1  G_A.max_production         1
    G_A.p_s0_t103         COST                      10  A.p_balance_103            1
    G_A.p_s0_t103         G_A.min_dispatch_103       1  G_A.max_dispatch_103       1
    G_A.p_s0_t103         G_A.min_production         1  G_A.max_production         1
    G_A.p_s0_t104         COST                      10  A.p_balance_104            1
    G_A.p_s0_t104         G_A.min_dispatch_104       1  G_A.max_dispatch_104       1
    G_A.p_s0_t104         G_A.min_production         1  G_A.max_production         1
    G_A.p_s0_t105         COST                      10  A.p_balance_105            1
    G_A.p_s0_t105         G_A.min_dispatch_105       1  G_A.max_dispatch_105       1
    G_A.p_s0_t105         G_A.min_production         1  G_A.max_production         1
    G_A.p_s0_t106         COST                      10  A.p_balance_106            1
    G_A.p_s0_t106         G_A.min_dispatch_106       1  G_A.max_dispatch_106       1
    G_A.p_s0_t106         G_A.min_production         1  G_A.max_production         1
    G_A.p_s0_t107         COST                      10  A.p_balance_107            1
    G_A.p_s0_t107         G_A.min_dispatch_107       1  G_A.max_dispatch_107       1
    G_A.p_s0_t107         G_A.min_production         1  G_A.max_production         1
    G_A.p_s0_t108         COST                      10  A.p_balance_108            1
    G_A.p_s0_t108         G_A.min_dispatch_108       1  G_A.max_dispatch_108       1
    G_A.p_s0_t108         G_A.min_production         1  G_A.max_production         1
    G_A.p_s0_t109         COST                      10  A.p_balance_109            1
    G_A.p_s0_t109         G_A.min_dispatch_109       1  G_A.max_dispatch_109       1
    G_A.p_s0_t109         G_A.min_production         1  G_A.max_production         1
    G_A.p_s0_t110         COST                      10  A.p_balance_110            1
    G_A.p_s0_t110         G_A.min_dispatch_110       1  G_A.max_dispatch_110       1
    G_A.p_s0_t110         G_A.min_production         1  G_A.max_production         1
    G_A.p_s0_t111         COST                      10  A.p_balance_111            1
    G_A.p_s0_t111         G_A.min_dispatch_111       1  G_A.max_dispatch_111       1
    G_A.p_s0_t111         G_A.min_production         1  G_A.max_production         1
    G_A.p_s0_t112         COST                      10  A.p_balance_112            1
    G_A.p_s0_t112         G_A.min_dispatch_112       1  G_A.max_dispatch_112       1
    G_A.p_s0_t112         G_A.min_production         1  G_A.max_production         1
    G_A.p_s0_t113         COST                      10  A.p_balance_113            1
    G_A.p_s0_t113         G_A.min_dispatch_113       1  G_A.max_dispatch_113       1
    G_A.p_s0_t113         G_A.min_production         1  G_A.max_production         1
    G_A.p_s0_t114         COST                      10  A.p_balance_114            1
    G_A.p_s0_t114         G_A.min_dispatch_114       1  G_A.max_dispatch_114       1
    G_A.p_s0_t114         G_A.min_production         1  G_A.max_production         1
    G_A.p_s0_t115         COST                      10  A.p_balance_115            1
    G_A.p_s0_t115         G_A.min_dispatch_115       1  G_A.max_dispatch_115       1
    G_A.p_s0_t115         G_A.min_production         1  G_A.max_production         1
    G_A.p_s0_t116         COST                      10  A.p_balance_116            1
    G_A.p_s0_t116         G_A.min_dispatch_116       1  G_A.max_dispatch_116       1
    G_A.p_s0_t116         G_A.min_production         1  G_A.max_production         1
    G_A.p_s0_t117         COST                      10  A.p_balance_117            1
    G_A.p_s0_t117         G_A.min_dispatch_117       1  G_A.max_dispatch_117       1
    G_A.p_s0_t117         G_A.min_production         1  G_A.max_production         1
    G_A.p_s0_t118         COST                      10  A.p_balance_118            1
    G_A.p_s0_t118         G_A.min_dispatch_118       1  G_A.max_dispatch_118       1
    G_A.p_s0_t118         G_A.min_production         1  G_A.max_production         1
    G_A.p_s0_t119         COST                      10  A.p_balance_119            1
    G_A.p_s0_t119         G_A.min_dispatch_119       1  G_A.max_dispatch_119       1
    G_A.p_s0_t119         G_A.min_production         1  G_A.max_production         1
    G_A.p_s0_t120         COST                      10  A.p_balance_120            1
    G_A.p_s0_t120         G_A.min_dispatch_120       1  G_A.max_dispatch_120       1
    G_A.p_s0_t120         G_A.min_production         1  G_A.max_production         1
    G_A.p_s0_t121         COST                      10  A.p_balance_121            1
    G_A.p_s0_t121         G_A.min_dispatch_121       1  G_A.max_dispatch_121       1
    G_A.p_s0_t121         G_A.min_production         1  G_A.max_production         1
    G_A.p_s0_t122         COST                      10  A.p_balance_122            1
    G_A.p_s0_t122         G_A.min_dispatch_122       1  G_A.max_dispatch_122       1
    G_A.p_s0_t122         G_A.min_production         1  G_A.max_production         1
    G_A.p_s0_t123         COST                      10  A.p_balance_123            1
    G_A.p_s0_t123         G_A.min_dispatch_123       1  G_A.max_dispatch_123       1
    G_A.p_s0_t123         G_A.min_production         1  G_A.max_production         1
    G_A.p_s0_t124         COST                      10  A.p_balance_124            1
    G_A.p_s0_t124         G_A.min_dispatch_124       1  G_A.max_dispatch_124       1
    G_A.p_s0_t124         G_A.min_production         1  G_A.max_production         1
    G_A.p_s0_t125         COST                      10  A.p_balance_125            1
    G_A.p_s0_t125         G_A.min_dispatch_125       1  G_A.max_dispatch_125       1
    G_A.p_s0_t125         G_A.min_production         1  G_A.max_production         1
    G_A.p_s0_t126         COST                      10  A.p_balance_126            1
    G_A.p_s0_t126         G_A.min_dispatch_126       1  G_A.max_dispatch_126       1
    G_A.p_s0_t126         G_A.min_production         1  G_A.max_production         1
    G_A.p_s0_t127         COST                      10  A.p_balance_127            1
    G_A.p_s0_t127         G_A.min_dispatch_127       1  G_A.max_dispatch_127       1
    G_A.p_s0_t127         G_A.min_production         1  G_A.max_production         1
    G_A.p_s0_t128         COST                      10  A.p_balance_128            1
    G_A.p_s0_t128         G_A.min_dispatch_128       1  G_A.max_dispatch_128       1
    G_A.p_s0_t128         G_A.min_production         1  G_A.max_production         1
    G_A.p_s0_t129         COST                      10  A.p_balance_129            1
    G_A.p_s0_t129         G_A.min_dispatch_129       1  G_A.max_dispatch_129       1
    G_A.p_s0_t129         G_A.min_production         1  G_A.max_production         1
    G_A.p_s0_t130         COST                      10  A.p_balance_130            1
    G_A.p_s0_t130         G_A.min_dispatch_130       1  G_A.max_dispatch_130       1
    G_A.p_s0_t130         G_A.min_production         1  G_A.max_production         1
    G_A.p_s0_t131         COST                      10  A.p_balance_131            1
    G_A.p_s0_t131         G_A.min_dispatch_131       1  G_A.max_dispatch_131       1
    G_A.p_s0_t131         G_A.min_production         1  G_A.max_production         1
    G_A.p_s0_t132         COST                      10  A.p_balance_132            1
    G_A.p_s0_t132         G_A.min_dispatch_132       1  G_A.max_dispatch_132       1
    G_A.p_s0_t132         G_A.min_production         1  G_A.max_production         1
    G_A.p_s0_t133         COST                      10  A.p_balance_133            1
    G_A.p_s0_t133         G_A.min_dispatch_133       1  G_A.max_dispatch_133       1
    G_A.p_s0_t133         G_A.min_production         1  G_A.max_production         1
    G_A.p_s0_t134         COST                      10  A.p_balance_134            1
    G_A.p_s0_t134         G_A.min_dispatch_134       1  G_A.max_dispatch_134       1
    G_A.p_s0_t134         G_A.min_production         1  G_A.max_production         1
    G_A.p_s0_t135         COST                      10  A.p_balance_135            1
    G_A.p_s0_t135         G_A.min_dispatch_135       1  G_A.max_dispatch_135       1
    G_A.p_s0_t135         G_A.min_production         1  G_A.max_production         1
    G_A.p_s0_t136         COST                      10  A.p_balance_136            1
    G_A.p_s0_t136         G_A.min_dispatch_136       1  G_A.max_dispatch_136       1
    G_A.p_s0_t136         G_A.min_production         1  G_A.max_production         1
    G_A.p_s0_t137         COST                      10  A.p_balance_137            1
    G_A.p_s0_t137         G_A.min_dispatch_137       1  G_A.max_dispatch_137       1
    G_A.p_s0_t137         G_A.min_production         1  G_A.max_production         1
    G_A.p_s0_t138         COST                      10  A.p_balance_138            1
    G_A.p_s0_t138         G_A.min_dispatch_138       1  G_A.max_dispatch_138       1
    G_A.p_s0_t138         G_A.min_production         1  G_A.max_production         1
    G_A.p_s0_t139         COST                      10  A.p_balance_139            1
    G_A.p_s0_t139         G_A.min_dispatch_139       1  G_A.max_dispatch_139       1
    G_A.p_s0_t139         G_A.min_production         1  G_A.max_production         1
    G_A.p_s0_t140         COST                      10  A.p_balance_140            1
    G_A.p_s0_t140         G_A.min_dispatch_140       1  G_A.max_dispatch_140       1
    G_A.p_s0_t140         G_A.min_production         1  G_A.max_production         1
    G_A.p_s0_t141         COST                      10  A.p_balance_141            1
    G_A.p_s0_t141         G_A.min_dispatch_141       1  G_A.max_dispatch_141       1
    G_A.p_s0_t141         G_A.min_production         1  G_A.max_production         1
    G_A.p_s0_t142         COST                      10  A.p_balance_142            1
    G_A.p_s0_t142         G_A.min_dispatch_142       1  G_A.max_dispatch_142       1
    G_A.p_s0_t142         G_A.min_production         1  G_A.max_production         1
    G_A.p_s0_t143         COST                      10  A.p_balance_143            1
    G_A.p_s0_t143         G_A.min_dispatch_143       1  G_A.max_dispatch_143       1
    G_A.p_s0_t143         G_A.min_production         1  G_A.max_production         1
    G_A.p_s0_t144         COST                      10  A.p_balance_144            1
    G_A.p_s0_t144         G_A.min_dispatch_144       1  G_A.max_dispatch_144       1
    G_A.p_s0_t144         G_A.min_production         1  G_A.max_production         1
    G_A.p_s0_t145         COST                      10  A.p_balance_145            1
    G_A.p_s0_t145         G_A.min_dispatch_145       1  G_A.max_dispatch_145       1
    G_A.p_s0_t145         G_A.min_production         1  G_A.max_production         1
    G_A.p_s0_t146         COST                      10  A.p_balance_146            1
    G_A.p_s0_t146         G_A.min_dispatch_146       1  G_A.max_dispatch_146       1
    G_A.p_s0_t146         G_A.min_production         1  G_A.max_production         1
    G_A.p_s0_t147         COST                      10  A.p_balance_147            1
    G_A.p_s0_t147         G_A.min_dispatch_147       1  G_A.max_dispatch_147       1
    G_A.p_s0_t147         G_A.min_production         1  G_A.max_production         1
    G_A.p_s0_t148         COST                      10  A.p_balance_148            1
    G_A.p_s0_t148         G_A.min_dispatch_148       1  G_A.max_dispatch_148       1
    G_A.p_s0_t148         G_A.min_production         1  G_A.max_production         1
    G_A.p_s0_t149         COST                      10  A.p_balance_149            1
    G_A.p_s0_t149         G_A.min_dispatch_149       1  G_A.max_dispatch_149       1
    G_A.p_s0_t149         G_A.min_production         1  G_A.max_production         1
    G_A.p_s0_t150         COST                      10  A.p_balance_150            1
    G_A.p_s0_t150         G_A.min_dispatch_150       1  G_A.max_dispatch_150       1
    G_A.p_s0_t150         G_A.min_production         1  G_A.max_production         1
    G_A.p_s0_t151         COST                      10  A.p_balance_151            1
    G_A.p_s0_t151         G_A.min_dispatch_151       1  G_A.max_dispatch_151       1
    G_A.p_s0_t151         G_A.min_production         1  G_A.max_production         1
    G_A.p_s0_t152         COST                      10  A.p_balance_152            1
    G_A.p_s0_t152         G_A.min_dispatch_152       1  G_A.max_dispatch_152       1
    G_A.p_s0_t152         G_A.min_production         1  G_A.max_production         1
    G_A.p_s0_t153         COST                      10  A.p_balance_153            1
    G_A.p_s0_t153         G_A.min_dispatch_153       1  G_A.max_dispatch_153       1
    G_A.p_s0_t153         G_A.min_production         1  G_A.max_production         1
    G_A.p_s0_t154         COST                      10  A.p_balance_154            1
    G_A.p_s0_t154         G_A.min_dispatch_154       1  G_A.max_dispatch_154       1
    G_A.p_s0_t154         G_A.min_production         1  G_A.max_production         1
    G_A.p_s0_t155         COST                      10  A.p_balance_155            1
    G_A.p_s0_t155         G_A.min_dispatch_155       1  G_A.max_dispatch_155       1
    G_A.p_s0_t155         G_A.min_production         1  G_A.max_production         1
    G_A.p_s0_t156         COST                      10  A.p_balance_156            1
    G_A.p_s0_t156         G_A.min_dispatch_156       1  G_A.max_dispatch_156       1
    G_A.p_s0_t156         G_A.min_production         1  G_A.max_production         1
    G_A.p_s0_t157         COST                      10  A.p_balance_157            1
    G_A.p_s0_t157         G_A.min_dispatch_157       1  G_A.max_dispatch_157       1
    G_A.p_s0_t157         G_A.min_production         1  G_A.max_production         1
    G_A.p_s0_t158         COST                      10  A.p_balance_158            1
    G_A.p_s0_t158         G_A.min_dispatch_158       1  G_A.max_dispatch_158       1
    G_A.p_s0_t158         G_A.min_production         1  G_A.max_production         1
    G_A.p_s0_t159         COST                      10  A.p_balance_159            1
    G_A.p_s0_t159         G_A.min_dispatch_159       1  G_A.max_dispatch_159       1
    G_A.p_s0_t159         G_A.min_production         1  G_A.max_production         1
    G_A.p_s0_t160         COST                      10  A.p_balance_160            1
    G_A.p_s0_t160         G_A.min_dispatch_160       1  G_A.max_dispatch_160       1
    G_A.p_s0_t160         G_A.min_production         1  G_A.max_production         1
    G_A.p_s0_t161         COST                      10  A.p_balance_161            1
    G_A.p_s0_t161         G_A.min_dispatch_161       1  G_A.max_dispatch_161       1
    G_A.p_s0_t161         G_A.min_production         1  G_A.max_production         1
    G_A.p_s0_t162         COST                      10  A.p_balance_162            1
    G_A.p_s0_t162         G_A.min_dispatch_162       1  G_A.max_dispatch_162       1
    G_A.p_s0_t162         G_A.min_production         1  G_A.max_production         1
    G_A.p_s0_t163         COST                      10  A.p_balance_163            1
    G_A.p_s0_t163         G_A.min_dispatch_163       1  G_A.max_dispatch_163       1
    G_A.p_s0_t163         G_A.min_production         1  G_A.max_production         1
    G_A.p_s0_t164         COST                      10  A.p_balance_164            1
    G_A.p_s0_t164         G_A.min_dispatch_164       1  G_A.max_dispatch_164       1
    G_A.p_s0_t164         G_A.min_production         1  G_A.max_production         1
    G_A.p_s0_t165         COST                      10  A.p_balance_165            1
    G_A.p_s0_t165         G_A.min_dispatch_165       1  G_A.max_dispatch_165       1
    G_A.p_s0_t165         G_A.min_production         1  G_A.max_production         1
    G_A.p_s0_t166         COST                      10  A.p_balance_166            1
    G_A.p_s0_t166         G_A.min_dispatch_166       1  G_A.max_dispatch_166       1
    G_A.p_s0_t166         G_A.min_production         1  G_A.max_production         1
    G_A.p_s0_t167         COST                      10  A.p_balance_167            1
    G_A.p_s0_t167         G_A.min_dispatch_167       1  G_A.max_dispatch_167       1
    G_A.p_s0_t167         G_A.min_production         1  G_A.max_production         1
    AB.p_nom              AB.p0_upper_0             -1  AB.p0_upper_1             -1
    AB.p_nom              AB.p0_upper_2             -1  AB.p0_upper_3             -1
    AB.p_nom              AB.p0_upper_4             -1  AB.p0_upper_5             -1
    AB.p_nom              AB.p0_upper_6             -1  AB.p0_upper_7             -1
    AB.p_nom              AB.p0_upper_8             -1  AB.p0_upper_9             -1
    AB.p_nom              AB.p0_upper_10            -1  AB.p0_upper_11            -1
    AB.p_nom              AB.p0_upper_12            -1  AB.p0_upper_13            -1
    AB.p_nom              AB.p0_upper_14            -1  AB.p0_upper_15            -1
    AB.p_nom              AB.p0_upper_16            -1  AB.p0_upper_17            -1
    AB.p_nom              AB.p0_upper_18            -1  AB.p0_upper_19            -1
    AB.p_nom              AB.p0_upper_20            -1  AB.p0_upper_21            -1
    AB.p_nom              AB.p0_upper_22            -1  AB.p0_upper_23            -1
    AB.p_nom              AB.p0_upper_24            -1  AB.p0_upper_25            -1
    AB.p_nom              AB.p0_upper_26            -1  AB.p0_upper_27            -1
    AB.p_nom              AB.p0_upper_28            -1  AB.p0_upper_29            -1
    AB.p_nom              AB.p0_upper_30            -1  AB.p0_upper_31            -1
    AB.p_nom              AB.p0_upper_32            -1  AB.p0_upper_33            -1
    AB.p_nom              AB.p0_upper_34            -1  AB.p0_upper_35            -1
    AB.p_nom              AB.p0_upper_36            -1  AB.p0_upper_37            -1
    AB.p_nom              AB.p0_upper_38            -1  AB.p0_upper_39            -1
    AB.p_nom              AB.p0_upper_40            -1  AB.p0_upper_41            -1
    AB.p_nom              AB.p0_upper_42            -1  AB.p0_upper_43            -1
    AB.p_nom              AB.p0_upper_44            -1  AB.p0_upper_45            -1
    AB.p_nom              AB.p0_upper_46            -1  AB.p0_upper_47            -1
    AB.p_nom              AB.p0_upper_48            -1  AB.p0_upper_49            -1
    AB.p_nom              AB.p0_upper_50            -1  AB.p0_upper_51            -1
    AB.p_nom              AB.p0_upper_52            -1  AB.p0_upper_53            -1
    AB.p_nom              AB.p0_upper_54            -1  AB.p0_upper_55            -1
    AB.p_nom              AB.p0_upper_56            -1  AB.p0_upper_57            -1
    AB.p_nom              AB.p0_upper_58            -1  AB.p0_upper_59            -1
    AB.p_nom              AB.p0_upper_60            -1  AB.p0_upper_61            -1
    AB.p_nom              AB.p0_upper_62            -1  AB.p0_upper_63            -1
    AB.p_nom              AB.p0_upper_64            -1  AB.p0_upper_65            -1
    AB.p_nom              AB.p0_upper_66            -1  AB.p0_upper_67            -1
    AB.p_nom              AB.p0_upper_68            -1  AB.p0_upper_69            -1
    AB.p_nom              AB.p0_upper_70            -1  AB.p0_upper_71            -1
    AB.p_nom              AB.p0_upper_72            -1  AB.p0_upper_73            -1
    AB.p_nom              AB.p0_upper_74            -1  AB.p0_upper_75            -1
    AB.p_nom              AB.p0_upper_76            -1  AB.p0_upper_77            -1
    AB.p_nom              AB.p0_upper_78            -1  AB.p0_upper_79            -1
    AB.p_nom              AB.p0_upper_80            -1  AB.p0_upper_81            -1
    AB.p_nom              AB.p0_upper_82            -1  AB.p0_upper_83            -1
    AB.p_nom              AB.p0_upper_84            -1  AB.p0_upper_85            -1
    AB.p_nom              AB.p0_upper_86            -1  AB.p0_upper_87            -1
    AB.p_nom              AB.p0_upper_88            -1  AB.p0_upper_89            -1
    AB.p_nom              AB.p0_upper_90            -1  AB.p0_upper_91            -1
    AB.p_nom              AB.p0_upper_92            -1  AB.p0_upper_93            -1
    AB.p_nom              AB.p0_upper_94            -1  AB.p0_upper_95            -1
    AB.p_nom              AB.p0_upper_96            -1  AB.p0_upper_97            -1
    AB.p_nom              AB.p0_upper_98            -1  AB.p0_upper_99            -1
    AB.p_nom              AB.p0_upper_100           -1  AB.p0_upper_101           -1
    AB.p_nom              AB.p0_upper_102           -1  AB.p0_upper_103           -1
    AB.p_nom              AB.p0_upper_104           -1  AB.p0_upper_105           -1
    AB.p_nom              AB.p0_upper_106           -1  AB.p0_upper_107           -1
    AB.p_nom              AB.p0_upper_108           -1  AB.p0_upper_109           -1
    AB.p_nom              AB.p0_upper_110           -1  AB.p0_upper_111           -1
    AB.p_nom              AB.p0_upper_112           -1  AB.p0_upper_113           -1
    AB.p_nom              AB.p0_upper_114           -1  AB.p0_upper_115           -1
    AB.p_nom              AB.p0_upper_116           -1  AB.p0_upper_117           -1
    AB.p_nom              AB.p0_upper_118           -1  AB.p0_upper_119           -1
    AB.p_nom              AB.p0_upper_120           -1  AB.p0_upper_121           -1
    AB.p_nom              AB.p0_upper_122           -1  AB.p0_upper_123           -1
    AB.p_nom              AB.p0_upper_124           -1  AB.p0_upper_125           -1
    AB.p_nom              AB.p0_upper_126           -1  AB.p0_upper_127           -1
    AB.p_nom              AB.p0_upper_128           -1  AB.p0_upper_129           -1
    AB.p_nom              AB.p0_upper_130           -1  AB.p0_upper_131           -1
    AB.p_nom              AB.p0_upper_132           -1  AB.p0_upper_133           -1
    AB.p_nom              AB.p0_upper_134           -1  AB.p0_upper_135           -1
    AB.p_nom              AB.p0_upper_136           -1  AB.p0_upper_137           -1
    AB.p_nom              AB.p0_upper_138           -1  AB.p0_upper_139           -1
    AB.p_nom              AB.p0_upper_140           -1  AB.p0_upper_141           -1
    AB.p_nom              AB.p0_upper_142           -1  AB.p0_upper_143           -1
    AB.p_nom              AB.p0_upper_144           -1  AB.p0_upper_145           -1
    AB.p_nom              AB.p0_upper_146           -1  AB.p0_upper_147           -1
    AB.p_nom              AB.p0_upper_148           -1  AB.p0_upper_149           -1
    AB.p_nom              AB.p0_upper_150           -1  AB.p0_upper_151           -1
    AB.p_nom              AB.p0_upper_152           -1  AB.p0_upper_153           -1
    AB.p_nom              AB.p0_upper_154           -1  AB.p0_upper_155           -1
    AB.p_nom              AB.p0_upper_156           -1  AB.p0_upper_157           -1
    AB.p_nom              AB.p0_upper_158           -1  AB.p0_upper_159           -1
    AB.p_nom              AB.p0_upper_160           -1  AB.p0_upper_161           -1
    AB.p_nom              AB.p0_upper_162           -1  AB.p0_upper_163           -1
    AB.p_nom              AB.p0_upper_164           -1  AB.p0_upper_165           -1
    AB.p_nom              AB.p0_upper_166           -1  AB.p0_upper_167           -1
    AB.p0_s0_t0           A.p_balance_0             -1  B.p_balance_0              1
    AB.p0_s0_t0           AB.p0_upper_0              1  AB.p0_lower_0              1
    AB.p0_s0_t1           A.p_balance_1             -1  B.p_balance_1              1
    AB.p0_s0_t1           AB.p0_upper_1              1  AB.p0_lower_1              1
    AB.p0_s0_t2           A.p_balance_2             -1  B.p_balance_2              1
    AB.p0_s0_t2           AB.p0_upper_2              1  AB.p0_lower_2              1
    AB.p0_s0_t3           A.p_balance_3             -1  B.p_balance_3              1
    AB.p0_s0_t3           AB.p0_upper_3              1  AB.p0_lower_3              1
    AB.p0_s0_t4           A.p_balance_4             -1  B.p_balance_4              1
    AB.p0_s0_t4           AB.p0_upper_4              1  AB.p0_lower_4              1
    AB.p0_s0_t5           A.p_balance_5             -1  B.p_balance_5              1
    AB.p0_s0_t5           AB.p0_upper_5              1  AB.p0_lower_5              1
    AB.p0_s0_t6           A.p_balance_6             -1  B.p_balance_6              1
    AB.p0_s0_t6           AB.p0_upper_6              1  AB.p0_lower_6              1
    AB.p0_s0_t7           A.p_balance_7             -1  B.p_balance_7              1
    AB.p0_s0_t7           AB.p0_upper_7              1  AB.p0_lower_7              1
    AB.p0_s0_t8           A.p_balance_8             -1  B.p_balance_8              1
    AB.p0_s0_t8           AB.p0_upper_8              1  AB.p0_lower_8              1
    AB.p0_s0_t9           A.p_balance_9             -1  B.p_balance_9              1
    AB.p0_s0_t9           AB.p0_upper_9              1  AB.p0_lower_9              1
    AB.p0_s0_t10          A.p_balance_10            -1  B.p_balance_10             1
    AB.p0_s0_t10          AB.p0_upper_10             1  AB.p0_lower_10             1
    AB.p0_s0_t11          A.p_balance_11            -1  B.p_balance_11             1
    AB.p0_s0_t11          AB.p0_upper_11             1  AB.p0_lower_11             1
    AB.p0_s0_t12          A.p_balance_12            -1  B.p_balance_12             1
    AB.p0_s0_t12          AB.p0_upper_12             1  AB.p0_lower_12             1
    AB.p0_s0_t13          A.p_balance_13            -1  B.p_balance_13             1
    AB.p0_s0_t13          AB.p0_upper_13             1  AB.p0_lower_13             1
    AB.p0_s0_t14          A.p_balance_14            -1  B.p_balance_14             1
    AB.p0_s0_t14          AB.p0_upper_14             1  AB.p0_lower_14             1
    AB.p0_s0_t15          A.p_balance_15            -1  B.p_balance_15             1
    AB.p0_s0_t15          AB.p0_upper_15             1  AB.p0_lower_15             1
    AB.p0_s0_t16          A.p_balance_16            -1  B.p_balance_16             1
    AB.p0_s0_t16          AB.p0_upper_16             1  AB.p0_lower_16             1
    AB.p0_s0_t17          A.p_balance_17            -1  B.p_balance_17             1
    AB.p0_s0_t17          AB.p0_upper_17             1  AB.p0_lower_17             1
    AB.p0_s0_t18          A.p_balance_18            -1  B.p_balance_18             1
    AB.p0_s0_t18          AB.p0_upper_18             1  AB.p0_lower_18             1
    AB.p0_s0_t19          A.p_balance_19            -1  B.p_balance_19             1
    AB.p0_s0_t19          AB.p0_upper_19             1  AB.p0_lower_19             1
    AB.p0_s0_t20          A.p_balance_20            -1  B.p_balance_20             1
    AB.p0_s0_t20          AB.p0_upper_20             1  AB.p0_lower_20             1
    AB.p0_s0_t21          A.p_balance_21            -1  B.p_balance_21             1
    AB.p0_s0_t21          AB.p0_upper_21             1  AB.p0_lower_21             1
    AB.p0_s0_t22          A.p_balance_22            -1  B.p_balance_22             1
    AB.p0_s0_t22          AB.p0_upper_22             1  AB.p0_lower_22             1
    AB.p0_s0_t23          A.p_balance_23            -1  B.p_balance_23             1
    AB.p0_s0_t23          AB.p0_upper_23             1  AB.p0_lower_23             1
    AB.p0_s0_t24          A.p_balance_24            -1  B.p_balance_24             1
    AB.p0_s0_t24          AB.p0_upper_24             1  AB.p0_lower_24             1
    AB.p0_s0_t25          A.p_balance_25            -1  B.p_balance_25             1
    AB.p0_s0_t25          AB.p0_upper_25             1  AB.p0_lower_25             1
    AB.p0_s0_t26          A.p_balance_26            -1  B.p_balance_26             1
    AB.p0_s0_t26          AB.p0_upper_26             1  AB.p0_lower_26             1
    AB.p0_s0_t27          A.p_balance_27            -1  B.p_balance_27             1
    AB.p0_s0_t27          AB.p0_upper_27             1  AB.p0_lower_27             1
    AB.p0_s0_t28          A.p_balance_28            -1  B.p_balance_28             1
    AB.p0_s0_t28          AB.p0_upper_28             1  AB.p0_lower_28             1
    AB.p0_s0_t29          A.p_balance_29            -1  B.p_balance_29             1
    AB.p0_s0_t29          AB.p0_upper_29             1  AB.p0_lower_29             1
    AB.p0_s0_t30          A.p_balance_30            -1  B.p_balance_30             1
    AB.p0_s0_t30          AB.p0_upper_30             1  AB.p0_lower_30             1
    AB.p0_s0_t31          A.p_balance_31            -1  B.p_balance_31             1
    AB.p0_s0_t31          AB.p0_upper_31             1  AB.p0_lower_31             1
    AB.p0_s0_t32          A.p_balance_32            -1  B.p_balance_32             1
    AB.p0_s0_t32          AB.p0_upper_32             1  AB.p0_lower_32             1
    AB.p0_s0_t33          A.p_balance_33            -1  B.p_balance_33             1
    AB.p0_s0_t33          AB.p0_upper_33             1  AB.p0_lower_33             1
    AB.p0_s0_t34          A.p_balance_34            -1  B.p_balance_34             1
    AB.p0_s0_t34          AB.p0_upper_34             1  AB.p0_lower_34             1
    AB.p0_s0_t35          A.p_balance_35            -1  B.p_balance_35             1
    AB.p0_s0_t35          AB.p0_upper_35             1  AB.p0_lower_35             1
    AB.p0_s0_t36          A.p_balance_36            -1  B.p_balance_36             1
    AB.p0_s0_t36          AB.p0_upper_36             1  AB.p0_lower_36             1
    AB.p0_s0_t37          A.p_balance_37            -1  B.p_balance_37             1
    AB.p0_s0_t37          AB.p0_upper_37             1  AB.p0_lower_37             1
    AB.p0_s0_t38          A.p_balance_38            -1  B.p_balance_38             1
    AB.p0_s0_t38          AB.p0_upper_38             1  AB.p0_lower_38             1
    AB.p0_s0_t39          A.p_balance_39            -1  B.p_balance_39             1
    AB.p0_s0_t39          AB.p0_upper_39             1  AB.p0_lower_39             1
    AB.p0_s0_t40          A.p_balance_40            -1  B.p_balance_40             1
    AB.p0_s0_t40          AB.p0_upper_40             1  AB.p0_lower_40             1
    AB.p0_s0_t41          A.p_balance_41            -1  B.p_balance_41             1
    AB.p0_s0_t41          AB.p0_upper_41             1  AB.p0_lower_41             1
    AB.p0_s0_t42          A.p_balance_42            -1  B.p_balance_42             1
    AB.p0_s0_t42          AB.p0_upper_42             1  AB.p0_lower_42             1
    AB.p0_s0_t43          A.p_balance_43            -1  B.p_balance_43             1
    AB.p0_s0_t43          AB.p0_upper_43             1  AB.p0_lower_43             1
    AB.p0_s0_t44          A.p_balance_44            -1  B.p_balance_44             1
    AB.p0_s0_t44          AB.p0_upper_44             1  AB.p0_lower_44             1
    AB.p0_s0_t45          A.p_balance_45            -1  B.p_balance_45             1
    AB.p0_s0_t45          AB.p0_upper_45             1  AB.p0_lower_45             1
    AB.p0_s0_t46          A.p_balance_46            -1  B.p_balance_46             1
    AB.p0_s0_t46          AB.p0_upper_46             1  AB.p0_lower_46             1
    AB.p0_s0_t47          A.p_balance_47            -1  B.p_balance_47             1
    AB.p0_s0_t47          AB.p0_upper_47             1  AB.p0_lower_47             1
    AB.p0_s0_t48          A.p_balance_48            -1  B.p_balance_48             1
    AB.p0_s0_t48          AB.p0_upper_48             1  AB.p0_lower_48             1
    AB.p0_s0_t49          A.p_balance_49            -1  B.p_balance_49             1
    AB.p0_s0_t49          AB.p0_upper_49             1  AB.p0_lower_49             1
    AB.p0_s0_t50          A.p_balance_50            -1  B.p_balance_50             1
    AB.p0_s0_t50          AB.p0_upper_50             1  AB.p0_lower_50             1
    AB.p0_s0_t51          A.p_balance_51            -1  B.p_balance_51             1
    AB.p0_s0_t51          AB.p0_upper_51             1  AB.p0_lower_51             1
    AB.p0_s0_t52          A.p_balance_52            -1  B.p_balance_52             1
    AB.p0_s0_t52          AB.p0_upper_52             1  AB.p0_lower_52             1
    AB.p0_s0_t53          A.p_balance_53            -1  B.p_balance_53             1
    AB.p0_s0_t53          AB.p0_upper_53             1  AB.p0_lower_53             1
    AB.p0_s0_t54          A.p_balance_54            -1  B.p_balance_54             1
    AB.p0_s0_t54          AB.p0_upper_54             1  AB.p0_lower_54             1
    AB.p0_s0_t55          A.p_balance_55            -1  B.p_balance_55             1
    AB.p0_s0_t55          AB.p0_upper_55             1  AB.p0_lower_55             1
    AB.p0_s0_t56          A.p_balance_56            -1  B.p_balance_56             1
    AB.p0_s0_t56          AB.p0_upper_56             1  AB.p0_lower_56             1
    AB.p0_s0_t57          A.p_balance_57            -1  B.p_balance_57             1
    AB.p0_s0_t57          AB.p0_upper_57             1  AB.p0_lower_57             1
    AB.p0_s0_t58          A.p_balance_58            -1  B.p_balance_58             1
    AB.p0_s0_t58          AB.p0_upper_58             1  AB.p0_lower_58             1
    AB.p0_s0_t59          A.p_balance_59            -1  B.p_balance_59             1
    AB.p0_s0_t59          AB.p0_upper_59             1  AB.p0_lower_59             1
    AB.p0_s0_t60          A.p_balance_60            -1  B.p_balance_60             1
    AB.p0_s0_t60          AB.p0_upper_60             1  AB.p0_lower_60             1
    AB.p0_s0_t61          A.p_balance_61            -1  B.p_balance_61             1
    AB.p0_s0_t61          AB.p0_upper_61             1  AB.p0_lower_61             1
    AB.p0_s0_t62          A.p_balance_62            -1  B.p_balance_62             1
    AB.p0_s0_t62          AB.p0_upper_62             1  AB.p0_lower_62             1
    AB.p0_s0_t63          A.p_balance_63            -1  B.p_balance_63             1
    AB.p0_s0_t63          AB.p0_upper_63             1  AB.p0_lower_63             1
    AB.p0_s0_t64          A.p_balance_64            -1  B.p_balance_64             1
    AB.p0_s0_t64          AB.p0_upper_64             1  AB.p0_lower_64             1
    AB.p0_s0_t65          A.p_balance_65            -1  B.p_balance_65             1
    AB.p0_s0_t65          AB.p0_upper_65             1  AB.p0_lower_65             1
    AB.p0_s0_t66          A.p_balance_66            -1  B.p_balance_66             1
    AB.p0_s0_t66          AB.p0_upper_66             1  AB.p0_lower_66             1
    AB.p0_s0_t67          A.p_balance_67            -1  B.p_balance_67             1
    AB.p0_s0_t67          AB.p0_upper_67             1  AB.p0_lower_67             1
    AB.p0_s0_t68          A.p_balance_68            -1  B.p_balance_68             1
    AB.p0_s0_t68          AB.p0_upper_68             1  AB.p0_lower_68             1
    AB.p0_s0_t69          A.p_balance_69            -1  B.p_balance_69             1
    AB.p0_s0_t69          AB.p0_upper_69             1  AB.p0_lower_69             1
    AB.p0_s0_t70          A.p_balance_70            -1  B.p_balance_70             1
    AB.p0_s0_t70          AB.p0_upper_70             1  AB.p0_lower_70             1
    AB.p0_s0_t71          A.p_balance_71            -1  B.p_balance_71             1
    AB.p0_s0_t71          AB.p0_upper_71             1  AB.p0_lower_71             1
    AB.p0_s0_t72          A.p_balance_72            -1  B.p_balance_72             1
    AB.p0_s0_t72          AB.p0_upper_72             1  AB.p0_lower_72             1
    AB.p0_s0_t73          A.p_balance_73            -1  B.p_balance_73             1
    AB.p0_s0_t73          AB.p0_upper_73             1  AB.p0_lower_73             1
    AB.p0_s0_t74          A.p_balance_74            -1  B.p_balance_74             1
    AB.p0_s0_t74          AB.p0_upper_74             1  AB.p0_lower_74             1
    AB.p0_s0_t75          A.p_balance_75            -1  B.p_balance_75             1
    AB.p0_s0_t75          AB.p0_upper_75             1  AB.p0_lower_75             1
    AB.p0_s0_t76          A.p_balance_76            -1  B.p_balance_76             1
    AB.p0_s0_t76          AB.p0_upper_76             1  AB.p0_lower_76             1
    AB.p0_s0_t77          A.p_balance_77            -1  B.p_balance_77             1
    AB.p0_s0_t77          AB.p0_upper_77             1  AB.p0_lower_77             1
    AB.p0_s0_t78          A.p_balance_78            -1  B.p_balance_78             1
    AB.p0_s0_t78          AB.p0_upper_78             1  AB.p0_lower_78             1
    AB.p0_s0_t79          A.p_balance_79            -1  B.p_balance_79             1
    AB.p0_s0_t79          AB.p0_upper_79             1  AB.p0_lower_79             1
    AB.p0_s0_t80          A.p_balance_80            -1  B.p_balance_80             1
    AB.p0_s0_t80          AB.p0_upper_80             1  AB.p0_lower_80             1
    AB.p0_s0_t81          A.p_balance_81            -1  B.p_balance_81             1
    AB.p0_s0_t81          AB.p0_upper_81             1  AB.p0_lower_81             1
    AB.p0_s0_t82          A.p_balance_82            -1  B.p_balance_82             1
    AB.p0_s0_t82          AB.p0_upper_82             1  AB.p0_lower_82             1
    AB.p0_s0_t83          A.p_balance_83            -1  B.p_balance_83             1
    AB.p0_s0_t83          AB.p0_upper_83             1  AB.p0_lower_83             1
    AB.p0_s0_t84          A.p_balance_84            -1  B.p_balance_84             1
    AB.p0_s0_t84          AB.p0_upper_84             1  AB.p0_lower_84             1
    AB.p0_s0_t85          A.p_balance_85            -1  B.p_balance_85             1
    AB.p0_s0_t85          AB.p0_upper_85             1  AB.p0_lower_85             1
    AB.p0_s0_t86          A.p_balance_86            -1  B.p_balance_86             1
    AB.p0_s0_t86          AB.p0_upper_86             1  AB.p0_lower_86             1
    AB.p0_s0_t87          A.p_balance_87            -1  B.p_balance_87             1
    AB.p0_s0_t87          AB.p0_upper_87             1  AB.p0_lower_87             1
    AB.p0_s0_t88          A.p_balance_88            -1  B.p_balance_88             1
    AB.p0_s0_t88          AB.p0_upper_88             1  AB.p0_lower_88             1
    AB.p0_s0_t89          A.p_balance_89            -1  B.p_balance_89             1
    AB.p0_s0_t89          AB.p0_upper_89             1  AB.p0_lower_89             1
    AB.p0_s0_t90          A.p_balance_90            -1  B.p_balance_90             1
    AB.p0_s0_t90          AB.p0_upper_90             1  AB.p0_lower_90             1
    AB.p0_s0_t91          A.p_balance_91            -1  B.p_balance_91             1
    AB.p0_s0_t91          AB.p0_upper_91             1  AB.p0_lower_91             1
    AB.p0_s0_t92          A.p_balance_92            -1  B.p_balance_92             1
    AB.p0_s0_t92          AB.p0_upper_92             1  AB.p0_lower_92             1
    AB.p0_s0_t93          A.p_balance_93            -1  B.p_balance_93             1
    AB.p0_s0_t93          AB.p0_upper_93             1  AB.p0_lower_93             1
    AB.p0_s0_t94          A.p_balance_94            -1  B.p_balance_94             1
    AB.p0_s0_t94          AB.p0_upper_94             1  AB.p0_lower_94             1
    AB.p0_s0_t95          A.p_balance_95            -1  B.p_balance_95             1
    AB.p0_s0_t95          AB.p0_upper_95             1  AB.p0_lower_95             1
    AB.p0_s0_t96          A.p_balance_96            -1  B.p_balance_96             1
    AB.p0_s0_t96          AB.p0_upper_96             1  AB.p0_lower_96             1
    AB.p0_s0_t97          A.p_balance_97            -1  B.p_balance_97             1
    AB.p0_s0_t97          AB.p0_upper_97             1  AB.p0_lower_97             1
    AB.p0_s0_t98          A.p_balance_98            -1  B.p_balance_98             1
    AB.p0_s0_t98          AB.p0_upper_98             1  AB.p0_lower_98             1
    AB.p0_s0_t99          A.p_balance_99            -1  B.p_balance_99             1
    AB.p0_s0_t99          AB.p0_upper_99             1  AB.p0_lower_99             1
    AB.p0_s0_t100         A.p_balance_100           -1  B.p_balance_100            1
    AB.p0_s0_t100         AB.p0_upper_100            1  AB.p0_lower_100            1
    AB.p0_s0_t101         A.p_balance_101           -1  B.p_balance_101            1
    AB.p0_s0_t101         AB.p0_upper_101            1  AB.p0_lower_101            1
    AB.p0_s0_t102         A.p_balance_102           -1  B.p_balance_102            1
    AB.p0_s0_t102         AB.p0_upper_102            1  AB.p0_lower_102            1
    AB.p0_s0_t103         A.p_balance_103           -1  B.p_balance_103            1
    AB.p0_s0_t103         AB.p0_upper_103            1  AB.p0_lower_103            1
    AB.p0_s0_t104         A.p_balance_104           -1  B.p_balance_104            1
    AB.p0_s0_t104         AB.p0_upper_104            1  AB.p0_lower_104            1
    AB.p0_s0_t105         A.p_balance_105           -1  B.p_balance_105            1
    AB.p0_s0_t105         AB.p0_upper_105            1  AB.p0_lower_105            1
    AB.p0_s0_t106         A.p_balance_106           -1  B.p_balance_106            1
    AB.p0_s0_t106         AB.p0_upper_106            1  AB.p0_lower_106            1
    AB.p0_s0_t107         A.p_balance_107           -1  B.p_balance_107            1
    AB.p0_s0_t107         AB.p0_upper_107            1  AB.p0_lower_107            1
    AB.p0_s0_t108         A.p_balance_108           -1  B.p_balance_108            1
    AB.p0_s0_t108         AB.p0_upper_108            1  AB.p0_lower_108            1
    AB.p0_s0_t109         A.p_balance_109           -1  B.p_balance_109            1
    AB.p0_s0_t109         AB.p0_upper_109            1  AB.p0_lower_109            1
    AB.p0_s0_t110         A.p_balance_110           -1  B.p_balance_110            1
    AB.p0_s0_t110         AB.p0_upper_110            1  AB.p0_lower_110            1
    AB.p0_s0_t111         A.p_balance_111           -1  B.p_balance_111            1
    AB.p0_s0_t111         AB.p0_upper_111            1  AB.p0_lower_111            1
    AB.p0_s0_t112         A.p_balance_112           -1  B.p_balance_112            1
    AB.p0_s0_t112         AB.p0_upper_112            1  AB.p0_lower_112            1
    AB.p0_s0_t113         A.p_balance_113           -1  B.p_balance_113            1
    AB.p0_s0_t113         AB.p0_upper_113            1  AB.p0_lower_113            1
    AB.p0_s0_t114         A.p_balance_114           -1  B.p_balance_114            1
    AB.p0_s0_t114         AB.p0_upper_114            1  AB.p0_lower_114            1
    AB.p0_s0_t115         A.p_balance_115           -1  B.p_balance_115            1
    AB.p0_s0_t115         AB.p0_upper_115            1  AB.p0_lower_115            1
    AB.p0_s0_t116         A.p_balance_116           -1  B.p_balance_116            1
    AB.p0_s0_t116         AB.p0_upper_116            1  AB.p0_lower_116            1
    AB.p0_s0_t117         A.p_balance_117           -1  B.p_balance_117            1
    AB.p0_s0_t117         AB.p0_upper_117            1  AB.p0_lower_117            1
    AB.p0_s0_t118         A.p_balance_118           -1  B.p_balance_118            1
    AB.p0_s0_t118         AB.p0_upper_118            1  AB.p0_lower_118            1
    AB.p0_s0_t119         A.p_balance_119           -1  B.p_balance_119            1
    AB.p0_s0_t119         AB.p0_upper_119            1  AB.p0_lower_119            1
    AB.p0_s0_t120         A.p_balance_120           -1  B.p_balance_120            1
    AB.p0_s0_t120         AB.p0_upper_120            1  AB.p0_lower_120            1
    AB.p0_s0_t121         A.p_balance_121           -1  B.p_balance_121            1
    AB.p0_s0_t121         AB.p0_upper_121            1  AB.p0_lower_121            1
    AB.p0_s0_t122         A.p_balance_122           -1  B.p_balance_122            1
    AB.p0_s0_t122         AB.p0_upper_122            1  AB.p0_lower_122            1
    AB.p0_s0_t123         A.p_balance_123           -1  B.p_balance_123            1
    AB.p0_s0_t123         AB.p0_upper_123            1  AB.p0_lower_123            1
    AB.p0_s0_t124         A.p_balance_124           -1  B.p_balance_124            1
    AB.p0_s0_t124         AB.p0_upper_124            1  AB.p0_lower_124            1
    AB.p0_s0_t125         A.p_balance_125           -1  B.p_balance_125            1
    AB.p0_s0_t125         AB.p0_upper_125            1  AB.p0_lower_125            1
    AB.p0_s0_t126         A.p_balance_126           -1  B.p_balance_126            1
    AB.p0_s0_t126         AB.p0_upper_126            1  AB.p0_lower_126            1
    AB.p0_s0_t127         A.p_balance_127           -1  B.p_balance_127            1
    AB.p0_s0_t127         AB.p0_upper_127            1  AB.p0_lower_127            1
    AB.p0_s0_t128         A.p_balance_128           -1  B.p_balance_128            1
    AB.p0_s0_t128         AB.p0_upper_128            1  AB.p0_lower_128            1
    AB.p0_s0_t129         A.p_balance_129           -1  B.p_balance_129            1
    AB.p0_s0_t129         AB.p0_upper_129            1  AB.p0_lower_129            1
    AB.p0_s0_t130         A.p_balance_130           -1  B.p_balance_130            1
    AB.p0_s0_t130         AB.p0_upper_130            1  AB.p0_lower_130            1
    AB.p0_s0_t131         A.p_balance_131           -1  B.p_balance_131            1
    AB.p0_s0_t131         AB.p0_upper_131            1  AB.p0_lower_131            1
    AB.p0_s0_t132         A.p_balance_132           -1  B.p_balance_132            1
    AB.p0_s0_t132         AB.p0_upper_132            1  AB.p0_lower_132            1
    AB.p0_s0_t133         A.p_balance_133           -1  B.p_balance_133            1
    AB.p0_s0_t133         AB.p0_upper_133            1  AB.p0_lower_133            1
    AB.p0_s0_t134         A.p_balance_134           -1  B.p_balance_134            1
    AB.p0_s0_t134         AB.p0_upper_134            1  AB.p0_lower_134            1
    AB.p0_s0_t135         A.p_balance_135           -1  B.p_balance_135            1
    AB.p0_s0_t135         AB.p0_upper_135            1  AB.p0_lower_135            1
    AB.p0_s0_t136         A.p_balance_136           -1  B.p_balance_136            1
    AB.p0_s0_t136         AB.p0_upper_136            1  AB.p0_lower_136            1
    AB.p0_s0_t137         A.p_balance_137           -1  B.p_balance_137            1
    AB.p0_s0_t137         AB.p0_upper_137            1  AB.p0_lower_137            1
    AB.p0_s0_t138         A.p_balance_138           -1  B.p_balance_138            1
    AB.p0_s0_t138         AB.p0_upper_138            1  AB.p0_lower_138            1
    AB.p0_s0_t139         A.p_balance_139           -1  B.p_balance_139            1
    AB.p0_s0_t139         AB.p0_upper_139            1  AB.p0_lower_139            1
    AB.p0_s0_t140         A.p_balance_140           -1  B.p_balance_140            1
    AB.p0_s0_t140         AB.p0_upper_140            1  AB.p0_lower_140            1
    AB.p0_s0_t141         A.p_balance_141           -1  B.p_balance_141            1
    AB.p0_s0_t141         AB.p0_upper_141            1  AB.p0_lower_141            1
    AB.p0_s0_t142         A.p_balance_142           -1  B.p_balance_142            1
    AB.p0_s0_t142         AB.p0_upper_142            1  AB.p0_lower_142            1
    AB.p0_s0_t143         A.p_balance_143           -1  B.p_balance_143            1
    AB.p0_s0_t143         AB.p0_upper_143            1  AB.p0_lower_143            1
    AB.p0_s0_t144         A.p_balance_144           -1  B.p_balance_144            1
    AB.p0_s0_t144         AB.p0_upper_144            1  AB.p0_lower_144            1
    AB.p0_s0_t145         A.p_balance_145           -1  B.p_balance_145            1
    AB.p0_s0_t145         AB.p0_upper_145            1  AB.p0_lower_145            1
    AB.p0_s0_t146         A.p_balance_146           -1  B.p_balance_146            1
    AB.p0_s0_t146         AB.p0_upper_146            1  AB.p0_lower_146            1
    AB.p0_s0_t147         A.p_balance_147           -1  B.p_balance_147            1
    AB.p0_s0_t147         AB.p0_upper_147            1  AB.p0_lower_147            1
    AB.p0_s0_t148         A.p_balance_148           -1  B.p_balance_148            1
    AB.p0_s0_t148         AB.p0_upper_148            1  AB.p0_lower_148            1
    AB.p0_s0_t149         A.p_balance_149           -1  B.p_balance_149            1
    AB.p0_s0_t149         AB.p0_upper_149            1  AB.p0_lower_149            1
    AB.p0_s0_t150         A.p_balance_150           -1  B.p_balance_150            1
    AB.p0_s0_t150         AB.p0_upper_150            1  AB.p0_lower_150            1
    AB.p0_s0_t151         A.p_balance_151           -1  B.p_balance_151            1
    AB.p0_s0_t151         AB.p0_upper_151            1  AB.p0_lower_151            1
    AB.p0_s0_t152         A.p_balance_152           -1  B.p_balance_152            1
    AB.p0_s0_t152         AB.p0_upper_152            1  AB.p0_lower_152            1
    AB.p0_s0_t153         A.p_balance_153           -1  B.p_balance_153            1
    AB.p0_s0_t153         AB.p0_upper_153            1  AB.p0_lower_153            1
    AB.p0_s0_t154         A.p_balance_154           -1  B.p_balance_154            1
    AB.p0_s0_t154         AB.p0_upper_154            1  AB.p0_lower_154            1
    AB.p0_s0_t155         A.p_balance_155           -1  B.p_balance_155            1
    AB.p0_s0_t155         AB.p0_upper_155            1  AB.p0_lower_155            1
    AB.p0_s0_t156         A.p_balance_156           -1  B.p_balance_156            1
    AB.p0_s0_t156         AB.p0_upper_156            1  AB.p0_lower_156            1
    AB.p0_s0_t157         A.p_balance_157           -1  B.p_balance_157            1
    AB.p0_s0_t157         AB.p0_upper_157            1  AB.p0_lower_157            1
    AB.p0_s0_t158         A.p_balance_158           -1  B.p_balance_158            1
    AB.p0_s0_t158         AB.p0_upper_158            1  AB.p0_lower_158            1
    AB.p0_s0_t159         A.p_balance_159           -1  B.p_balance_159            1
    AB.p0_s0_t159         AB.p0_upper_159            1  AB.p0_lower_159            1
    AB.p0_s0_t160         A.p_balance_160           -1  B.p_balance_160            1
    AB.p0_s0_t160         AB.p0_upper_160            1  AB.p0_lower_160            1
    AB.p0_s0_t161         A.p_balance_161           -1  B.p_balance_161            1
    AB.p0_s0_t161         AB.p0_upper_161            1  AB.p0_lower_161            1
    AB.p0_s0_t162         A.p_balance_162           -1  B.p_balance_162            1
    AB.p0_s0_t162         AB.p0_upper_162            1  AB.p0_lower_162            1
    AB.p0_s0_t163         A.p_balance_163           -1  B.p_balance_163            1
    AB.p0_s0_t163         AB.p0_upper_163            1  AB.p0_lower_163            1
    AB.p0_s0_t164         A.p_balance_164           -1  B.p_balance_164            1
    AB.p0_s0_t164         AB.p0_upper_164            1  AB.p0_lower_164            1
    AB.p0_s0_t165         A.p_balance_165           -1  B.p_balance_165            1
    AB.p0_s0_t165         AB.p0_upper_165            1  AB.p0_lower_165            1
    AB.p0_s0_t166         A.p_balance_166           -1  B.p_balance_166            1
    AB.p0_s0_t166         AB.p0_upper_166            1  AB.p0_lower_166            1
    AB.p0_s0_t167         A.p_balance_167           -1  B.p_balance_167            1
    AB.p0_s0_t167         AB.p0_upper_167            1  AB.p0_lower_167            1
    BC.p_nom              BC.p0_upper_0             -1  BC.p0_upper_1             -1
    BC.p_nom              BC.p0_upper_2             -1  BC.p0_upper_3             -1
    BC.p_nom              BC.p0_upper_4             -1  BC.p0_upper_5             -1
    BC.p_nom              BC.p0_upper_6             -1  BC.p0_upper_7             -1
    BC.p_nom              BC.p0_upper_8             -1  BC.p0_upper_9             -1
    BC.p_nom              BC.p0_upper_10            -1  BC.p0_upper_11            -1
    BC.p_nom              BC.p0_upper_12            -1  BC.p0_upper_13            -1
    BC.p_nom              BC.p0_upper_14            -1  BC.p0_upper_15            -1
    BC.p_nom              BC.p0_upper_16            -1  BC.p0_upper_17            -1
    BC.p_nom              BC.p0_upper_18            -1  BC.p0_upper_19            -1
    BC.p_nom              BC.p0_upper_20            -1  BC.p0_upper_21            -1
    BC.p_nom              BC.p0_upper_22            -1  BC.p0_upper_23            -1
    BC.p_nom              BC.p0_upper_24            -1  BC.p0_upper_25            -1
    BC.p_nom              BC.p0_upper_26            -1  BC.p0_upper_27            -1
    BC.p_nom              BC.p0_upper_28            -1  BC.p0_upper_29            -1
    BC.p_nom              BC.p0_upper_30            -1  BC.p0_upper_31            -1
    BC.p_nom              BC.p0_upper_32            -1  BC.p0_upper_33            -1
    BC.p_nom              BC.p0_upper_34            -1  BC.p0_upper_35            -1
    BC.p_nom              BC.p0_upper_36            -1  BC.p0_upper_37            -1
    BC.p_nom              BC.p0_upper_38            -1  BC.p0_upper_39            -1
    BC.p_nom              BC.p0_upper_40            -1  BC.p0_upper_41            -1
    BC.p_nom              BC.p0_upper_42            -1  BC.p0_upper_43            -1
    BC.p_nom              BC.p0_upper_44            -1  BC.p0_upper_45            -1
    BC.p_nom              BC.p0_upper_46            -1  BC.p0_upper_47            -1
    BC.p_nom              BC.p0_upper_48            -1  BC.p0_upper_49            -1
    BC.p_nom              BC.p0_upper_50            -1  BC.p0_upper_51            -1
    BC.p_nom              BC.p0_upper_52            -1  BC.p0_upper_53            -1
    BC.p_nom              BC.p0_upper_54            -1  BC.p0_upper_55            -1
    BC.p_nom              BC.p0_upper_56            -1  BC.p0_upper_57            -1
    BC.p_nom              BC.p0_upper_58            -1  BC.p0_upper_59            -1
    BC.p_nom              BC.p0_upper_60            -1  BC.p0_upper_61            -1
    BC.p_nom              BC.p0_upper_62            -1  BC.p0_upper_63            -1
    BC.p_nom              BC.p0_upper_64            -1  BC.p0_upper_65            -1
    BC.p_nom              BC.p0_upper_66            -1  BC.p0_upper_67            -1
    BC.p_nom              BC.p0_upper_68            -1  BC.p0_upper_69            -1
    BC.p_nom              BC.p0_upper_70            -1  BC.p0_upper_71            -1
    BC.p_nom              BC.p0_upper_72            -1  BC.p0_upper_73            -1
    BC.p_nom              BC.p0_upper_74            -1  BC.p0_upper_75            -1
    BC.p_nom              BC.p0_upper_76            -1  BC.p0_upper_77            -1
    BC.p_nom              BC.p0_upper_78            -1  BC.p0_upper_79            -1
    BC.p_nom              BC.p0_upper_80            -1  BC.p0_upper_81            -1
    BC.p_nom              BC.p0_upper_82            -1  BC.p0_upper_83            -1
    BC.p_nom              BC.p0_upper_84            -1  BC.p0_upper_85            -1
    BC.p_nom              BC.p0_upper_86            -1  BC.p0_upper_87            -1
    BC.p_nom              BC.p0_upper_88            -1  BC.p0_upper_89            -1
    BC.p_nom              BC.p0_upper_90            -1  BC.p0_upper_91            -1
    BC.p_nom              BC.p0_upper_92            -1  BC.p0_upper_93            -1
    BC.p_nom              BC.p0_upper_94            -1  BC.p0_upper_95            -1
    BC.p_nom              BC.p0_upper_96            -1  BC.p0_upper_97            -1
    BC.p_nom              BC.p0_upper_98            -1  BC.p0_upper_99            -1
    BC.p_nom              BC.p0_upper_100           -1  BC.p0_upper_101           -1
    BC.p_nom              BC.p0_upper_102           -1  BC.p0_upper_103           -1
    BC.p_nom              BC.p0_upper_104           -1  BC.p0_upper_105           -1
    BC.p_nom              BC.p0_upper_106           -1  BC.p0_upper_107           -1
    BC.p_nom              BC.p0_upper_108           -1  BC.p0_upper_109           -1
    BC.p_nom              BC.p0_upper_110           -1  BC.p0_upper_111           -1
    BC.p_nom              BC.p0_upper_112           -1  BC.p0_upper_113           -1
    BC.p_nom              BC.p0_upper_114           -1  BC.p0_upper_115           -1
    BC.p_nom              BC.p0_upper_116           -1  BC.p0_upper_117           -1
    BC.p_nom              BC.p0_upper_118           -1  BC.p0_upper_119           -1
    BC.p_nom              BC.p0_upper_120           -1  BC.p0_upper_121           -1
    BC.p_nom              BC.p0_upper_122           -1  BC.p0_upper_123           -1
    BC.p_nom              BC.p0_upper_124           -1  BC.p0_upper_125           -1
    BC.p_nom              BC.p0_upper_126           -1  BC.p0_upper_127           -1
    BC.p_nom              BC.p0_upper_128           -1  BC.p0_upper_129           -1
    BC.p_nom              BC.p0_upper_130           -1  BC.p0_upper_131           -1
    BC.p_nom              BC.p0_upper_132           -1  BC.p0_upper_133           -1
    BC.p_nom              BC.p0_upper_134           -1  BC.p0_upper_135           -1
    BC.p_nom              BC.p0_upper_136           -1  BC.p0_upper_137           -1
    BC.p_nom              BC.p0_upper_138           -1  BC.p0_upper_139           -1
    BC.p_nom              BC.p0_upper_140           -1  BC.p0_upper_141           -1
    BC.p_nom              BC.p0_upper_142           -1  BC.p0_upper_143           -1
    BC.p_nom              BC.p0_upper_144           -1  BC.p0_upper_145           -1
    BC.p_nom              BC.p0_upper_146           -1  BC.p0_upper_147           -1
    BC.p_nom              BC.p0_upper_148           -1  BC.p0_upper_149           -1
    BC.p_nom              BC.p0_upper_150           -1  BC.p0_upper_151           -1
    BC.p_nom              BC.p0_upper_152           -1  BC.p0_upper_153           -1
    BC.p_nom              BC.p0_upper_154           -1  BC.p0_upper_155           -1
    BC.p_nom              BC.p0_upper_156           -1  BC.p0_upper_157           -1
    BC.p_nom              BC.p0_upper_158           -1  BC.p0_upper_159           -1
    BC.p_nom              BC.p0_upper_160           -1  BC.p0_upper_161           -1
    BC.p_nom              BC.p0_upper_162           -1  BC.p0_upper_163           -1
    BC.p_nom              BC.p0_upper_164           -1  BC.p0_upper_165           -1
    BC.p_nom              BC.p0_upper_166           -1  BC.p0_upper_167           -1
    BC.p0_s0_t0           B.p_balance_0             -1  C.p_balance_0              1
    BC.p0_s0_t0           BC.p0_upper_0              1  BC.p0_lower_0              1
    BC.p0_s0_t1           B.p_balance_1             -1  C.p_balance_1              1
    BC.p0_s0_t1           BC.p0_upper_1              1  BC.p0_lower_1              1
    BC.p0_s0_t2           B.p_balance_2             -1  C.p_balance_2              1
    BC.p0_s0_t2           BC.p0_upper_2              1  BC.p0_lower_2              1
    BC.p0_s0_t3           B.p_balance_3             -1  C.p_balance_3              1
    BC.p0_s0_t3           BC.p0_upper_3              1  BC.p0_lower_3              1
    BC.p0_s0_t4           B.p_balance_4             -1  C.p_balance_4              1
    BC.p0_s0_t4           BC.p0_upper_4              1  BC.p0_lower_4              1
    BC.p0_s0_t5           B.p_balance_5             -1  C.p_balance_5              1
    BC.p0_s0_t5           BC.p0_upper_5              1  BC.p0_lower_5              1
    BC.p0_s0_t6           B.p_balance_6             -1  C.p_balance_6              1
    BC.p0_s0_t6           BC.p0_upper_6              1  BC.p0_lower_6              1
    BC.p0_s0_t7           B.p_balance_7             -1  C.p_balance_7              1
    BC.p0_s0_t7           BC.p0_upper_7              1  BC.p0_lower_7              1
    BC.p0_s0_t8           B.p_balance_8             -1  C.p_balance_8              1
    BC.p0_s0_t8           BC.p0_upper_8              1  BC.p0_lower_8              1
    BC.p0_s0_t9           B.p_balance_9             -1  C.p_balance_9              1
    BC.p0_s0_t9           BC.p0_upper_9              1  BC.p0_lower_9              1
    BC.p0_s0_t10          B.p_balance_10            -1  C.p_balance_10             1
    BC.p0_s0_t10          BC.p0_upper_10             1  BC.p0_lower_10             1
    BC.p0_s0_t11          B.p_balance_11            -1  C.p_balance_11             1
    BC.p0_s0_t11          BC.p0_upper_11             1  BC.p0_lower_11             1
    BC.p0_s0_t12          B.p_balance_12            -1  C.p_balance_12             1
    BC.p0_s0_t12          BC.p0_upper_12             1  BC.p0_lower_12             1
    BC.p0_s0_t13          B.p_balance_13            -1  C.p_balance_13             1
    BC.p0_s0_t13          BC.p0_upper_13             1  BC.p0_lower_13             1
    BC.p0_s0_t14          B.p_balance_14            -1  C.p_balance_14             1
    BC.p0_s0_t14          BC.p0_upper_14             1  BC.p0_lower_14             1
    BC.p0_s0_t15          B.p_balance_15            -1  C.p_balance_15             1
    BC.p0_s0_t15          BC.p0_upper_15             1  BC.p0_lower_15             1
    BC.p0_s0_t16          B.p_balance_16            -1  C.p_balance_16             1
    BC.p0_s0_t16          BC.p0_upper_16             1  BC.p0_lower_16             1
    BC.p0_s0_t17          B.p_balance_17            -1  C.p_balance_17             1
    BC.p0_s0_t17          BC.p0_upper_17             1  BC.p0_lower_17             1
    BC.p0_s0_t18          B.p_balance_18            -1  C.p_balance_18             1
    BC.p0_s0_t18          BC.p0_upper_18             1  BC.p0_lower_18             1
    BC.p0_s0_t19          B.p_balance_19            -1  C.p_balance_19             1
    BC.p0_s0_t19          BC.p0_upper_19             1  BC.p0_lower_19             1
    BC.p0_s0_t20          B.p_balance_20            -1  C.p_balance_20             1
    BC.p0_s0_t20          BC.p0_upper_20             1  BC.p0_lower_20             1
    BC.p0_s0_t21          B.p_balance_21            -1  C.p_balance_21             1
    BC.p0_s0_t21          BC.p0_upper_21             1  BC.p0_lower_21             1
    BC.p0_s0_t22          B.p_balance_22            -1  C.p_balance_22             1
    BC.p0_s0_t22          BC.p0_upper_22             1  BC.p0_lower_22             1
    BC.p0_s0_t23          B.p_balance_23            -1  C.p_balance_23             1
    BC.p0_s0_t23          BC.p0_upper_23             1  BC.p0_lower_23             1
    BC.p0_s0_t24          B.p_balance_24            -1  C.p_balance_24             1
    BC.p0_s0_t24          BC.p0_upper_24             1  BC.p0_lower_24             1
    BC.p0_s0_t25          B.p_balance_25            -1  C.p_balance_25             1
    BC.p0_s0_t25          BC.p0_upper_25             1  BC.p0_lower_25             1
    BC.p0_s0_t26          B.p_balance_26            -1  C.p_balance_26             1
    BC.p0_s0_t26          BC.p0_upper_26             1  BC.p0_lower_26             1
    BC.p0_s0_t27          B.p_balance_27            -1  C.p_balance_27             1
    BC.p0_s0_t27          BC.p0_upper_27             1  BC.p0_lower_27             1
    BC.p0_s0_t28          B.p_balance_28            -1  C.p_balance_28             1
    BC.p0_s0_t28          BC.p0_upper_28             1  BC.p0_lower_28             1
    BC.p0_s0_t29          B.p_balance_29            -1  C.p_balance_29             1
    BC.p0_s0_t29          BC.p0_upper_29             1  BC.p0_lower_29             1
    BC.p0_s0_t30          B.p_balance_30            -1  C.p_balance_30             1
    BC.p0_s0_t30          BC.p0_upper_30             1  BC.p0_lower_30             1
    BC.p0_s0_t31          B.p_balance_31            -1  C.p_balance_31             1
    BC.p0_s0_t31          BC.p0_upper_31             1  BC.p0_lower_31             1
    BC.p0_s0_t32          B.p_balance_32            -1  C.p_balance_32             1
    BC.p0_s0_t32          BC.p0_upper_32             1  BC.p0_lower_32             1
    BC.p0_s0_t33          B.p_balance_33            -1  C.p_balance_33             1
    BC.p0_s0_t33          BC.p0_upper_33             1  BC.p0_lower_33             1
    BC.p0_s0_t34          B.p_balance_34            -1  C.p_balance_34             1
    BC.p0_s0_t34          BC.p0_upper_34             1  BC.p0_lower_34             1
    BC.p0_s0_t35          B.p_balance_35            -1  C.p_balance_35             1
    BC.p0_s0_t35          BC.p0_upper_35             1  BC.p0_lower_35             1
    BC.p0_s0_t36          B.p_balance_36            -1  C.p_balance_36             1
    BC.p0_s0_t36          BC.p0_upper_36             1  BC.p0_lower_36             1
    BC.p0_s0_t37          B.p_balance_37            -1  C.p_balance_37             1
    BC.p0_s0_t37          BC.p0_upper_37             1  BC.p0_lower_37             1
    BC.p0_s0_t38          B.p_balance_38            -1  C.p_balance_38             1
    BC.p0_s0_t38          BC.p0_upper_38             1  BC.p0_lower_38             1
    BC.p0_s0_t39          B.p_balance_39            -1  C.p_balance_39             1
    BC.p0_s0_t39          BC.p0_upper_39             1  BC.p0_lower_39             1
    BC.p0_s0_t40          B.p_balance_40            -1  C.p_balance_40             1
    BC.p0_s0_t40          BC.p0_upper_40             1  BC.p0_lower_40             1
    BC.p0_s0_t41          B.p_balance_41            -1  C.p_balance_41             1
    BC.p0_s0_t41          BC.p0_upper_41             1  BC.p0_lower_41             1
    BC.p0_s0_t42          B.p_balance_42            -1  C.p_balance_42             1
    BC.p0_s0_t42          BC.p0_upper_42             1  BC.p0_lower_42             1
    BC.p0_s0_t43          B.p_balance_43            -1  C.p_balance_43             1
    BC.p0_s0_t43          BC.p0_upper_43             1  BC.p0_lower_43             1
    BC.p0_s0_t44          B.p_balance_44            -1  C.p_balance_44             1
    BC.p0_s0_t44          BC.p0_upper_44             1  BC.p0_lower_44             1
    BC.p0_s0_t45          B.p_balance_45            -1  C.p_balance_45             1
    BC.p0_s0_t45          BC.p0_upper_45             1  BC.p0_lower_45             1
    BC.p0_s0_t46          B.p_balance_46            -1  C.p_balance_46             1
    BC.p0_s0_t46          BC.p0_upper_46             1  BC.p0_lower_46             1
    BC.p0_s0_t47          B.p_balance_47            -1  C.p_balance_47             1
    BC.p0_s0_t47          BC.p0_upper_47             1  BC.p0_lower_47             1
    BC.p0_s0_t48          B.p_balance_48            -1  C.p_balance_48             1
    BC.p0_s0_t48          BC.p0_upper_48             1  BC.p0_lower_48             1
    BC.p0_s0_t49          B.p_balance_49            -1  C.p_balance_49             1
    BC.p0_s0_t49          BC.p0_upper_49             1  BC.p0_lower_49             1
    BC.p0_s0_t50          B.p_balance_50            -1  C.p_balance_50             1
    BC.p0_s0_t50          BC.p0_upper_50             1  BC.p0_lower_50             1
    BC.p0_s0_t51          B.p_balance_51            -1  C.p_balance_51             1
    BC.p0_s0_t51          BC.p0_upper_51             1  BC.p0_lower_51             1
    BC.p0_s0_t52          B.p_balance_52            -1  C.p_balance_52             1
    BC.p0_s0_t52          BC.p0_upper_52             1  BC.p0_lower_52             1
    BC.p0_s0_t53          B.p_balance_53            -1  C.p_balance_53             1
    BC.p0_s0_t53          BC.p0_upper_53             1  BC.p0_lower_53             1
    BC.p0_s0_t54          B.p_balance_54            -1  C.p_balance_54             1
    BC.p0_s0_t54          BC.p0_upper_54             1  BC.p0_lower_54             1
    BC.p0_s0_t55          B.p_balance_55            -1  C.p_balance_55             1
    BC.p0_s0_t55          BC.p0_upper_55             1  BC.p0_lower_55             1
    BC.p0_s0_t56          B.p_balance_56            -1  C.p_balance_56             1
    BC.p0_s0_t56          BC.p0_upper_56             1  BC.p0_lower_56             1
    BC.p0_s0_t57          B.p_balance_57            -1  C.p_balance_57             1
    BC.p0_s0_t57          BC.p0_upper_57             1  BC.p0_lower_57             1
    BC.p0_s0_t58          B.p_balance_58            -1  C.p_balance_58             1
    BC.p0_s0_t58          BC.p0_upper_58             1  BC.p0_lower_58             1
    BC.p0_s0_t59          B.p_balance_59            -1  C.p_balance_59             1
    BC.p0_s0_t59          BC.p0_upper_59             1  BC.p0_lower_59             1
    BC.p0_s0_t60          B.p_balance_60            -1  C.p_balance_60             1
    BC.p0_s0_t60          BC.p0_upper_60             1  BC.p0_lower_60             1
    BC.p0_s0_t61          B.p_balance_61            -1  C.p_balance_61             1
    BC.p0_s0_t61          BC.p0_upper_61             1  BC.p0_lower_61             1
    BC.p0_s0_t62          B.p_balance_62            -1  C.p_balance_62             1
    BC.p0_s0_t62          BC.p0_upper_62             1  BC.p0_lower_62             1
    BC.p0_s0_t63          B.p_balance_63            -1  C.p_balance_63             1
    BC.p0_s0_t63          BC.p0_upper_63             1  BC.p0_lower_63             1
    BC.p0_s0_t64          B.p_balance_64            -1  C.p_balance_64             1
    BC.p0_s0_t64          BC.p0_upper_64             1  BC.p0_lower_64             1
    BC.p0_s0_t65          B.p_balance_65            -1  C.p_balance_65             1
    BC.p0_s0_t65          BC.p0_upper_65             1  BC.p0_lower_65             1
    BC.p0_s0_t66          B.p_balance_66            -1  C.p_balance_66             1
    BC.p0_s0_t66          BC.p0_upper_66             1  BC.p0_lower_66             1
    BC.p0_s0_t67          B.p_balance_67            -1  C.p_balance_67             1
    BC.p0_s0_t67          BC.p0_upper_67             1  BC.p0_lower_67             1
    BC.p0_s0_t68          B.p_balance_68            -1  C.p_balance_68             1
    BC.p0_s0_t68          BC.p0_upper_68             1  BC.p0_lower_68             1
    BC.p0_s0_t69          B.p_balance_69            -1  C.p_balance_69             1
    BC.p0_s0_t69          BC.p0_upper_69             1  BC.p0_lower_69             1
    BC.p0_s0_t70          B.p_balance_70            -1  C.p_balance_70             1
    BC.p0_s0_t70          BC.p0_upper_70             1  BC.p0_lower_70             1
    BC.p0_s0_t71          B.p_balance_71            -1  C.p_balance_71             1
    BC.p0_s0_t71          BC.p0_upper_71             1  BC.p0_lower_71             1
    BC.p0_s0_t72          B.p_balance_72            -1  C.p_balance_72             1
    BC.p0_s0_t72          BC.p0_upper_72             1  BC.p0_lower_72             1
    BC.p0_s0_t73          B.p_balance_73            -1  C.p_balance_73             1
    BC.p0_s0_t73          BC.p0_upper_73             1  BC.p0_lower_73             1
    BC.p0_s0_t74          B.p_balance_74            -1  C.p_balance_74             1
    BC.p0_s0_t74          BC.p0_upper_74             1  BC.p0_lower_74             1
    BC.p0_s0_t75          B.p_balance_75            -1  C.p_balance_75             1
    BC.p0_s0_t75          BC.p0_upper_75             1  BC.p0_lower_75             1
    BC.p0_s0_t76          B.p_balance_76            -1  C.p_balance_76             1
    BC.p0_s0_t76          BC.p0_upper_76             1  BC.p0_lower_76             1
    BC.p0_s0_t77          B.p_balance_77            -1  C.p_balance_77             1
    BC.p0_s0_t77          BC.p0_upper_77             1  BC.p0_lower_77             1
    BC.p0_s0_t78          B.p_balance_78            -1  C.p_balance_78             1
    BC.p0_s0_t78          BC.p0_upper_78             1  BC.p0_lower_78             1
    BC.p0_s0_t79          B.p_balance_79            -1  C.p_balance_79             1
    BC.p0_s0_t79          BC.p0_upper_79             1  BC.p0_lower_79             1
    BC.p0_s0_t80          B.p_balance_80            -1  C.p_balance_80             1
    BC.p0_s0_t80          BC.p0_upper_80             1  BC.p0_lower_80             1
    BC.p0_s0_t81          B.p_balance_81            -1  C.p_balance_81             1
    BC.p0_s0_t81          BC.p0_upper_81             1  BC.p0_lower_81             1
    BC.p0_s0_t82          B.p_balance_82            -1  C.p_balance_82             1
    BC.p0_s0_t82          BC.p0_upper_82             1  BC.p0_lower_82             1
    BC.p0_s0_t83          B.p_balance_83            -1  C.p_balance_83             1
    BC.p0_s0_t83          BC.p0_upper_83             1  BC.p0_lower_83             1
    BC.p0_s0_t84          B.p_balance_84            -1  C.p_balance_84             1
    BC.p0_s0_t84          BC.p0_upper_84             1  BC.p0_lower_84             1
    BC.p0_s0_t85          B.p_balance_85            -1  C.p_balance_85             1
    BC.p0_s0_t85          BC.p0_upper_85             1  BC.p0_lower_85             1
    BC.p0_s0_t86          B.p_balance_86            -1  C.p_balance_86             1
    BC.p0_s0_t86          BC.p0_upper_86             1  BC.p0_lower_86             1
    BC.p0_s0_t87          B.p_balance_87            -1  C.p_balance_87             1
    BC.p0_s0_t87          BC.p0_upper_87             1  BC.p0_lower_87             1
    BC.p0_s0_t88          B.p_balance_88            -1  C.p_balance_88             1
    BC.p0_s0_t88          BC.p0_upper_88             1  BC.p0_lower_88             1
    BC.p0_s0_t89          B.p_balance_89            -1  C.p_balance_89             1
    BC.p0_s0_t89          BC.p0_upper_89             1  BC.p0_lower_89             1
    BC.p0_s0_t90          B.p_balance_90            -1  C.p_balance_90             1
    BC.p0_s0_t90          BC.p0_upper_90             1  BC.p0_lower_90             1
    BC.p0_s0_t91          B.p_balance_91            -1  C.p_balance_91             1
    BC.p0_s0_t91          BC.p0_upper_91             1  BC.p0_lower_91             1
    BC.p0_s0_t92          B.p_balance_92            -1  C.p_balance_92             1
    BC.p0_s0_t92          BC.p0_upper_92             1  BC.p0_lower_92             1
    BC.p0_s0_t93          B.p_balance_93            -1  C.p_balance_93             1
    BC.p0_s0_t93          BC.p0_upper_93             1  BC.p0_lower_93             1
    BC.p0_s0_t94          B.p_balance_94            -1  C.p_balance_94             1
    BC.p0_s0_t94          BC.p0_upper_94             1  BC.p0_lower_94             1
    BC.p0_s0_t95          B.p_balance_95            -1  C.p_balance_95             1
    BC.p0_s0_t95          BC.p0_upper_95             1  BC.p0_lower_95             1
    BC.p0_s0_t96          B.p_balance_96            -1  C.p_balance_96             1
    BC.p0_s0_t96          BC.p0_upper_96             1  BC.p0_lower_96             1
    BC.p0_s0_t97          B.p_balance_97            -1  C.p_balance_97             1
    BC.p0_s0_t97          BC.p0_upper_97             1  BC.p0_lower_97             1
    BC.p0_s0_t98          B.p_balance_98            -1  C.p_balance_98             1
    BC.p0_s0_t98          BC.p0_upper_98             1  BC.p0_lower_98             1
    BC.p0_s0_t99          B.p_balance_99            -1  C.p_balance_99             1
    BC.p0_s0_t99          BC.p0_upper_99             1  BC.p0_lower_99             1
    BC.p0_s0_t100         B.p_balance_100           -1  C.p_balance_100            1
    BC.p0_s0_t100         BC.p0_upper_100            1  BC.p0_lower_100            1
    BC.p0_s0_t101         B.p_balance_101           -1  C.p_balance_101            1
    BC.p0_s0_t101         BC.p0_upper_101            1  BC.p0_lower_101            1
    BC.p0_s0_t102         B.p_balance_102           -1  C.p_balance_102            1
    BC.p0_s0_t102         BC.p0_upper_102            1  BC.p0_lower_102            1
    BC.p0_s0_t103         B.p_balance_103           -1  C.p_balance_103            1
    BC.p0_s0_t103         BC.p0_upper_103            1  BC.p0_lower_103            1
    BC.p0_s0_t104         B.p_balance_104           -1  C.p_balance_104            1
    BC.p0_s0_t104         BC.p0_upper_104            1  BC.p0_lower_104            1
    BC.p0_s0_t105         B.p_balance_105           -1  C.p_balance_105            1
    BC.p0_s0_t105         BC.p0_upper_105            1  BC.p0_lower_105            1
    BC.p0_s0_t106         B.p_balance_106           -1  C.p_balance_106            1
    BC.p0_s0_t106         BC.p0_upper_106            1  BC.p0_lower_106            1
    BC.p0_s0_t107         B.p_balance_107           -1  C.p_balance_107            1
    BC.p0_s0_t107         BC.p0_upper_107            1  BC.p0_lower_107            1
    BC.p0_s0_t108         B.p_balance_108           -1  C.p_balance_108            1
    BC.p0_s0_t108         BC.p0_upper_108            1  BC.p0_lower_108            1
    BC.p0_s0_t109         B.p_balance_109           -1  C.p_balance_109            1
    BC.p0_s0_t109         BC.p0_upper_109            1  BC.p0_lower_109            1
    BC.p0_s0_t110         B.p_balance_110           -1  C.p_balance_110            1
    BC.p0_s0_t110         BC.p0_upper_110            1  BC.p0_lower_110            1
    BC.p0_s0_t111         B.p_balance_111           -1  C.p_balance_111            1
    BC.p0_s0_t111         BC.p0_upper_111            1  BC.p0_lower_111            1
    BC.p0_s0_t112         B.p_balance_112           -1  C.p_balance_112            1
    BC.p0_s0_t112         BC.p0_upper_112            1  BC.p0_lower_112            1
    BC.p0_s0_t113         B.p_balance_113           -1  C.p_balance_113            1
    BC.p0_s0_t113         BC.p0_upper_113            1  BC.p0_lower_113            1
    BC.p0_s0_t114         B.p_balance_114           -1  C.p_balance_114            1
    BC.p0_s0_t114         BC.p0_upper_114            1  BC.p0_lower_114            1
    BC.p0_s0_t115         B.p_balance_115           -1  C.p_balance_115            1
    BC.p0_s0_t115         BC.p0_upper_115            1  BC.p0_lower_115            1
    BC.p0_s0_t116         B.p_balance_116           -1  C.p_balance_116            1
    BC.p0_s0_t116         BC.p0_upper_116            1  BC.p0_lower_116            1
    BC.p0_s0_t117         B.p_balance_117           -1  C.p_balance_117            1
    BC.p0_s0_t117         BC.p0_upper_117            1  BC.p0_lower_117            1
    BC.p0_s0_t118         B.p_balance_118           -1  C.p_balance_118            1
    BC.p0_s0_t118         BC.p0_upper_118            1  BC.p0_lower_118            1
    BC.p0_s0_t119         B.p_balance_119           -1  C.p_balance_119            1
    BC.p0_s0_t119         BC.p0_upper_119            1  BC.p0_lower_119            1
    BC.p0_s0_t120         B.p_balance_120           -1  C.p_balance_120            1
    BC.p0_s0_t120         BC.p0_upper_120            1  BC.p0_lower_120            1
    BC.p0_s0_t121         B.p_balance_121           -1  C.p_balance_121            1
    BC.p0_s0_t121         BC.p0_upper_121            1  BC.p0_lower_121            1
    BC.p0_s0_t122         B.p_balance_122           -1  C.p_balance_122            1
    BC.p0_s0_t122         BC.p0_upper_122            1  BC.p0_lower_122            1
    BC.p0_s0_t123         B.p_balance_123           -1  C.p_balance_123            1
    BC.p0_s0_t123         BC.p0_upper_123            1  BC.p0_lower_123            1
    BC.p0_s0_t124         B.p_balance_124           -1  C.p_balance_124            1
    BC.p0_s0_t124         BC.p0_upper_124            1  BC.p0_lower_124            1
    BC.p0_s0_t125         B.p_balance_125           -1  C.p_balance_125            1
    BC.p0_s0_t125         BC.p0_upper_125            1  BC.p0_lower_125            1
    BC.p0_s0_t126         B.p_balance_126           -1  C.p_balance_126            1
    BC.p0_s0_t126         BC.p0_upper_126            1  BC.p0_lower_126            1
    BC.p0_s0_t127         B.p_balance_127           -1  C.p_balance_127            1
    BC.p0_s0_t127         BC.p0_upper_127            1  BC.p0_lower_127            1
    BC.p0_s0_t128         B.p_balance_128           -1  C.p_balance_128            1
    BC.p0_s0_t128         BC.p0_upper_128            1  BC.p0_lower_128            1
    BC.p0_s0_t129         B.p_balance_129           -1  C.p_balance_129            1
    BC.p0_s0_t129         BC.p0_upper_129            1  BC.p0_lower_129            1
    BC.p0_s0_t130         B.p_balance_130           -1  C.p_balance_130            1
    BC.p0_s0_t130         BC.p0_upper_130            1  BC.p0_lower_130            1
    BC.p0_s0_t131         B.p_balance_131           -1  C.p_balance_131            1
    BC.p0_s0_t131         BC.p0_upper_131            1  BC.p0_lower_131            1
    BC.p0_s0_t132         B.p_balance_132           -1  C.p_balance_132            1
    BC.p0_s0_t132         BC.p0_upper_132            1  BC.p0_lower_132            1
    BC.p0_s0_t133         B.p_balance_133           -1  C.p_balance_133            1
    BC.p0_s0_t133         BC.p0_upper_133            1  BC.p0_lower_133            1
    BC.p0_s0_t134         B.p_balance_134           -1  C.p_balance_134            1
    BC.p0_s0_t134         BC.p0_upper_134            1  BC.p0_lower_134            1
    BC.p0_s0_t135         B.p_balance_135           -1  C.p_balance_135            1
    BC.p0_s0_t135         BC.p0_upper_135            1  BC.p0_lower_135            1
    BC.p0_s0_t136         B.p_balance_136           -1  C.p_balance_136            1
    BC.p0_s0_t136         BC.p0_upper_136            1  BC.p0_lower_136            1
    BC.p0_s0_t137         B.p_balance_137           -1  C.p_balance_137            1
    BC.p0_s0_t137         BC.p0_upper_137            1  BC.p0_lower_137            1
    BC.p0_s0_t138         B.p_balance_138           -1  C.p_balance_138            1
    BC.p0_s0_t138         BC.p0_upper_138            1  BC.p0_lower_138            1
    BC.p0_s0_t139         B.p_balance_139           -1  C.p_balance_139            1
    BC.p0_s0_t139         BC.p0_upper_139            1  BC.p0_lower_139            1
    BC.p0_s0_t140         B.p_balance_140           -1  C.p_balance_140            1
    BC.p0_s0_t140         BC.p0_upper_140            1  BC.p0_lower_140            1
    BC.p0_s0_t141         B.p_balance_141           -1  C.p_balance_141            1
    BC.p0_s0_t141         BC.p0_upper_141            1  BC.p0_lower_141            1
    BC.p0_s0_t142         B.p_balance_142           -1  C.p_balance_142            1
    BC.p0_s0_t142         BC.p0_upper_142            1  BC.p0_lower_142            1
    BC.p0_s0_t143         B.p_balance_143           -1  C.p_balance_143            1
    BC.p0_s0_t143         BC.p0_upper_143            1  BC.p0_lower_143            1
    BC.p0_s0_t144         B.p_balance_144           -1  C.p_balance_144            1
    BC.p0_s0_t144         BC.p0_upper_144            1  BC.p0_lower_144            1
    BC.p0_s0_t145         B.p_balance_145           -1  C.p_balance_145            1
    BC.p0_s0_t145         BC.p0_upper_145            1  BC.p0_lower_145            1
    BC.p0_s0_t146         B.p_balance_146           -1  C.p_balance_146            1
    BC.p0_s0_t146         BC.p0_upper_146            1  BC.p0_lower_146            1
    BC.p0_s0_t147         B.p_balance_147           -1  C.p_balance_147            1
    BC.p0_s0_t147         BC.p0_upper_147            1  BC.p0_lower_147            1
    BC.p0_s0_t148         B.p_balance_148           -1  C.p_balance_148            1
    BC.p0_s0_t148         BC.p0_upper_148            1  BC.p0_lower_148            1
    BC.p0_s0_t149         B.p_balance_149           -1  C.p_balance_149            1
    BC.p0_s0_t149         BC.p0_upper_149            1  BC.p0_lower_149            1
    BC.p0_s0_t150         B.p_balance_150           -1  C.p_balance_150            1
    BC.p0_s0_t150         BC.p0_upper_150            1  BC.p0_lower_150            1
    BC.p0_s0_t151         B.p_balance_151           -1  C.p_balance_151            1
    BC.p0_s0_t151         BC.p0_upper_151            1  BC.p0_lower_151            1
    BC.p0_s0_t152         B.p_balance_152           -1  C.p_balance_152            1
    BC.p0_s0_t152         BC.p0_upper_152            1  BC.p0_lower_152            1
    BC.p0_s0_t153         B.p_balance_153           -1  C.p_balance_153            1
    BC.p0_s0_t153         BC.p0_upper_153            1  BC.p0_lower_153            1
    BC.p0_s0_t154         B.p_balance_154           -1  C.p_balance_154            1
    BC.p0_s0_t154         BC.p0_upper_154            1  BC.p0_lower_154            1
    BC.p0_s0_t155         B.p_balance_155           -1  C.p_balance_155            1
    BC.p0_s0_t155         BC.p0_upper_155            1  BC.p0_lower_155            1
    BC.p0_s0_t156         B.p_balance_156           -1  C.p_balance_156            1
    BC.p0_s0_t156         BC.p0_upper_156            1  BC.p0_lower_156            1
    BC.p0_s0_t157         B.p_balance_157           -1  C.p_balance_157            1
    BC.p0_s0_t157         BC.p0_upper_157            1  BC.p0_lower_157            1
    BC.p0_s0_t158         B.p_balance_158           -1  C.p_balance_158            1
    BC.p0_s0_t158         BC.p0_upper_158            1  BC.p0_lower_158            1
    BC.p0_s0_t159         B.p_balance_159           -1  C.p_balance_159            1
    BC.p0_s0_t159         BC.p0_upper_159            1  BC.p0_lower_159            1
    BC.p0_s0_t160         B.p_balance_160           -1  C.p_balance_160            1
    BC.p0_s0_t160         BC.p0_upper_160            1  BC.p0_lower_160            1
    BC.p0_s0_t161         B.p_balance_161           -1  C.p_balance_161            1
    BC.p0_s0_t161         BC.p0_upper_161            1  BC.p0_lower_161            1
    BC.p0_s0_t162         B.p_balance_162           -1  C.p_balance_162            1
    BC.p0_s0_t162         BC.p0_upper_162            1  BC.p0_lower_162            1
    BC.p0_s0_t163         B.p_balance_163           -1  C.p_balance_163            1
    BC.p0_s0_t163         BC.p0_upper_163            1  BC.p0_lower_163            1
    BC.p0_s0_t164         B.p_balance_164           -1  C.p_balance_164            1
    BC.p0_s0_t164         BC.p0_upper_164            1  BC.p0_lower_164            1
    BC.p0_s0_t165         B.p_balance_165           -1  C.p_balance_165            1
    BC.p0_s0_t165         BC.p0_upper_165            1  BC.p0_lower_165            1
    BC.p0_s0_t166         B.p_balance_166           -1  C.p_balance_166            1
    BC.p0_s0_t166         BC.p0_upper_166            1  BC.p0_lower_166            1
    BC.p0_s0_t167         B.p_balance_167           -1  C.p_balance_167            1
    BC.p0_s0_t167         BC.p0_upper_167            1  BC.p0_lower_167            1
    AC.p_nom              AC.p0_upper_0             -1  AC.p0_upper_1             -1
    AC.p_nom              AC.p0_upper_2             -1  AC.p0_upper_3             -1
    AC.p_nom              AC.p0_upper_4             -1  AC.p0_upper_5             -1
    AC.p_nom              AC.p0_upper_6             -1  AC.p0_upper_7             -1
    AC.p_nom              AC.p0_upper_8             -1  AC.p0_upper_9             -1
    AC.p_nom              AC.p0_upper_10            -1  AC.p0_upper_11            -1
    AC.p_nom              AC.p0_upper_12            -1  AC.p0_upper_13            -1
    AC.p_nom              AC.p0_upper_14            -1  AC.p0_upper_15            -1
    AC.p_nom              AC.p0_upper_16            -1  AC.p0_upper_17            -1
    AC.p_nom              AC.p0_upper_18            -1  AC.p0_upper_19            -1
    AC.p_nom              AC.p0_upper_20            -1  AC.p0_upper_21            -1
    AC.p_nom              AC.p0_upper_22            -1  AC.p0_upper_23            -1
    AC.p_nom              AC.p0_upper_24            -1  AC.p0_upper_25            -1
    AC.p_nom              AC.p0_upper_26            -1  AC.p0_upper_27            -1
    AC.p_nom              AC.p0_upper_28            -1  AC.p0_upper_29            -1
    AC.p_nom              AC.p0_upper_30            -1  AC.p0_upper_31            -1
    AC.p_nom              AC.p0_upper_32            -1  AC.p0_upper_33            -1
    AC.p_nom              AC.p0_upper_34            -1  AC.p0_upper_35            -1
    AC.p_nom              AC.p0_upper_36            -1  AC.p0_upper_37            -1
    AC.p_nom              AC.p0_upper_38            -1  AC.p0_upper_39            -1
    AC.p_nom              AC.p0_upper_40            -1  AC.p0_upper_41            -1
    AC.p_nom              AC.p0_upper_42            -1  AC.p0_upper_43            -1
    AC.p_nom              AC.p0_upper_44            -1  AC.p0_upper_45            -1
    AC.p_nom              AC.p0_upper_46            -1  AC.p0_upper_47            -1
    AC.p_nom              AC.p0_upper_48            -1  AC.p0_upper_49            -1
    AC.p_nom              AC.p0_upper_50            -1  AC.p0_upper_51            -1
    AC.p_nom              AC.p0_upper_52            -1  AC.p0_upper_53            -1
    AC.p_nom              AC.p0_upper_54            -1  AC.p0_upper_55            -1
    AC.p_nom              AC.p0_upper_56            -1  AC.p0_upper_57            -1
    AC.p_nom              AC.p0_upper_58            -1  AC.p0_upper_59            -1
    AC.p_nom              AC.p0_upper_60            -1  AC.p0_upper_61            -1
    AC.p_nom              AC.p0_upper_62            -1  AC.p0_upper_63            -1
    AC.p_nom              AC.p0_upper_64            -1  AC.p0_upper_65            -1
    AC.p_nom              AC.p0_upper_66            -1  AC.p0_upper_67            -1
    AC.p_nom              AC.p0_upper_68            -1  AC.p0_upper_69            -1
    AC.p_nom              AC.p0_upper_70            -1  AC.p0_upper_71            -1
    AC.p_nom              AC.p0_upper_72            -1  AC.p0_upper_73            -1
    AC.p_nom              AC.p0_upper_74            -1  AC.p0_upper_75            -1
    AC.p_nom              AC.p0_upper_76            -1  AC.p0_upper_77            -1
    AC.p_nom              AC.p0_upper_78            -1  AC.p0_upper_79            -1
    AC.p_nom              AC.p0_upper_80            -1  AC.p0_upper_81            -1
    AC.p_nom              AC.p0_upper_82            -1  AC.p0_upper_83            -1
    AC.p_nom              AC.p0_upper_84            -1  AC.p0_upper_85            -1
    AC.p_nom              AC.p0_upper_86            -1  AC.p0_upper_87            -1
    AC.p_nom              AC.p0_upper_88            -1  AC.p0_upper_89            -1
    AC.p_nom              AC.p0_upper_90            -1  AC.p0_upper_91            -1
    AC.p_nom              AC.p0_upper_92            -1  AC.p0_upper_93            -1
    AC.p_nom              AC.p0_upper_94            -1  AC.p0_upper_95            -1
    AC.p_nom              AC.p0_upper_96            -1  AC.p0_upper_97            -1
    AC.p_nom              AC.p0_upper_98            -1  AC.p0_upper_99            -1
    AC.p_nom              AC.p0_upper_100           -1  AC.p0_upper_101           -1
    AC.p_nom              AC.p0_upper_102           -1  AC.p0_upper_103           -1
    AC.p_nom              AC.p0_upper_104           -1  AC.p0_upper_105           -1
    AC.p_nom              AC.p0_upper_106           -1  AC.p0_upper_107           -1
    AC.p_nom              AC.p0_upper_108           -1  AC.p0_upper_109           -1
    AC.p_nom              AC.p0_upper_110           -1  AC.p0_upper_111           -1
    AC.p_nom              AC.p0_upper_112           -1  AC.p0_upper_113           -1
    AC.p_nom              AC.p0_upper_114           -1  AC.p0_upper_115           -1
    AC.p_nom              AC.p0_upper_116           -1  AC.p0_upper_117           -1
    AC.p_nom              AC.p0_upper_118           -1  AC.p0_upper_119           -1
    AC.p_nom              AC.p0_upper_120           -1  AC.p0_upper_121           -1
    AC.p_nom              AC.p0_upper_122           -1  AC.p0_upper_123           -1
    AC.p_nom              AC.p0_upper_124           -1  AC.p0_upper_125           -1
    AC.p_nom              AC.p0_upper_126           -1  AC.p0_upper_127           -1
    AC.p_nom              AC.p0_upper_128           -1  AC.p0_upper_129           -1
    AC.p_nom              AC.p0_upper_130           -1  AC.p0_upper_131           -1
    AC.p_nom              AC.p0_upper_132           -1  AC.p0_upper_133           -1
    AC.p_nom              AC.p0_upper_134           -1  AC.p0_upper_135           -1
    AC.p_nom              AC.p0_upper_136           -1  AC.p0_upper_137           -1
    AC.p_nom              AC.p0_upper_138           -1  AC.p0_upper_139           -1
    AC.p_nom              AC.p0_upper_140           -1  AC.p0_upper_141           -1
    AC.p_nom              AC.p0_upper_142           -1  AC.p0_upper_143           -1
    AC.p_nom              AC.p0_upper_144           -1  AC.p0_upper_145           -1
    AC.p_nom              AC.p0_upper_146           -1  AC.p0_upper_147           -1
    AC.p_nom              AC.p0_upper_148           -1  AC.p0_upper_149           -1
    AC.p_nom              AC.p0_upper_150           -1  AC.p0_upper_151           -1
    AC.p_nom              AC.p0_upper_152           -1  AC.p0_upper_153           -1
    AC.p_nom              AC.p0_upper_154           -1  AC.p0_upper_155           -1
    AC.p_nom              AC.p0_upper_156           -1  AC.p0_upper_157           -1
    AC.p_nom              AC.p0_upper_158           -1  AC.p0_upper_159           -1
    AC.p_nom              AC.p0_upper_160           -1  AC.p0_upper_161           -1
    AC.p_nom              AC.p0_upper_162           -1  AC.p0_upper_163           -1
    AC.p_nom              AC.p0_upper_164           -1  AC.p0_upper_165           -1
    AC.p_nom              AC.p0_upper_166           -1  AC.p0_upper_167           -1
    AC.p0_s0_t0           A.p_balance_0             -1  C.p_balance_0              1
    AC.p0_s0_t0           AC.p0_upper_0              1  AC.p0_lower_0              1
    AC.p0_s0_t1           A.p_balance_1             -1  C.p_balance_1              1
    AC.p0_s0_t1           AC.p0_upper_1              1  AC.p0_lower_1              1
    AC.p0_s0_t2           A.p_balance_2             -1  C.p_balance_2              1
    AC.p0_s0_t2           AC.p0_upper_2              1  AC.p0_lower_2              1
    AC.p0_s0_t3           A.p_balance_3             -1  C.p_balance_3              1
    AC.p0_s0_t3           AC.p0_upper_3              1  AC.p0_lower_3              1
    AC.p0_s0_t4           A.p_balance_4             -1  C.p_balance_4              1
    AC.p0_s0_t4           AC.p0_upper_4              1  AC.p0_lower_4              1
    AC.p0_s0_t5           A.p_balance_5             -1  C.p_balance_5              1
    AC.p0_s0_t5           AC.p0_upper_5              1  AC.p0_lower_5              1
    AC.p0_s0_t6           A.p_balance_6             -1  C.p_balance_6              1
    AC.p0_s0_t6           AC.p0_upper_6              1  AC.p0_lower_6              1
    AC.p0_s0_t7           A.p_balance_7             -1  C.p_balance_7              1
    AC.p0_s0_t7           AC.p0_upper_7              1  AC.p0_lower_7              1
    AC.p0_s0_t8           A.p_balance_8             -1  C.p_balance_8              1
    AC.p0_s0_t8           AC.p0_upper_8              1  AC.p0_lower_8              1
    AC.p0_s0_t9           A.p_balance_9             -1  C.p_balance_9              1
    AC.p0_s0_t9           AC.p0_upper_9              1  AC.p0_lower_9              1
    AC.p0_s0_t10          A.p_balance_10            -1  C.p_balance_10             1
    AC.p0_s0_t10          AC.p0_upper_10             1  AC.p0_lower_10             1
    AC.p0_s0_t11          A.p_balance_11            -1  C.p_balance_11             1
    AC.p0_s0_t11          AC.p0_upper_11             1  AC.p0_lower_11             1
    AC.p0_s0_t12          A.p_balance_12            -1  C.p_balance_12             1
    AC.p0_s0_t12          AC.p0_upper_12             1  AC.p0_lower_12             1
    AC.p0_s0_t13          A.p_balance_13            -1  C.p_balance_13             1
    AC.p0_s0_t13          AC.p0_upper_13             1  AC.p0_lower_13             1
    AC.p0_s0_t14          A.p_balance_14            -1  C.p_balance_14             1
    AC.p0_s0_t14          AC.p0_upper_14             1  AC.p0_lower_14             1
    AC.p0_s0_t15          A.p_balance_15            -1  C.p_balance_15             1
    AC.p0_s0_t15          AC.p0_upper_15             1  AC.p0_lower_15             1
    AC.p0_s0_t16          A.p_balance_16            -1  C.p_balance_16             1
    AC.p0_s0_t16          AC.p0_upper_16             1  AC.p0_lower_16             1
    AC.p0_s0_t17          A.p_balance_17            -1  C.p_balance_17             1
    AC.p0_s0_t17          AC.p0_upper_17             1  AC.p0_lower_17             1
    AC.p0_s0_t18          A.p_balance_18            -1  C.p_balance_18             1
    AC.p0_s0_t18          AC.p0_upper_18             1  AC.p0_lower_18             1
    AC.p0_s0_t19          A.p_balance_19            -1  C.p_balance_19             1
    AC.p0_s0_t19          AC.p0_upper_19             1  AC.p0_lower_19             1
    AC.p0_s0_t20          A.p_balance_20            -1  C.p_balance_20             1
    AC.p0_s0_t20          AC.p0_upper_20             1  AC.p0_lower_20             1
    AC.p0_s0_t21          A.p_balance_21            -1  C.p_balance_21             1
    AC.p0_s0_t21          AC.p0_upper_21             1  AC.p0_lower_21             1
    AC.p0_s0_t22          A.p_balance_22            -1  C.p_balance_22             1
    AC.p0_s0_t22          AC.p0_upper_22             1  AC.p0_lower_22             1
    AC.p0_s0_t23          A.p_balance_23            -1  C.p_balance_23             1
    AC.p0_s0_t23          AC.p0_upper_23             1  AC.p0_lower_23             1
    AC.p0_s0_t24          A.p_balance_24            -1  C.p_balance_24             1
    AC.p0_s0_t24          AC.p0_upper_24             1  AC.p0_lower_24             1
    AC.p0_s0_t25          A.p_balance_25            -1  C.p_balance_25             1
    AC.p0_s0_t25          AC.p0_upper_25             1  AC.p0_lower_25             1
    AC.p0_s0_t26          A.p_balance_26            -1  C.p_balance_26             1
    AC.p0_s0_t26          AC.p0_upper_26             1  AC.p0_lower_26             1
    AC.p0_s0_t27          A.p_balance_27            -1  C.p_balance_27             1
    AC.p0_s0_t27          AC.p0_upper_27             1  AC.p0_lower_27             1
    AC.p0_s0_t28          A.p_balance_28            -1  C.p_balance_28             1
    AC.p0_s0_t28          AC.p0_upper_28             1  AC.p0_lower_28             1
    AC.p0_s0_t29          A.p_balance_29            -1  C.p_balance_29             1
    AC.p0_s0_t29          AC.p0_upper_29             1  AC.p0_lower_29             1
    AC.p0_s0_t30          A.p_balance_30            -1  C.p_balance_30             1
    AC.p0_s0_t30          AC.p0_upper_30             1  AC.p0_lower_30             1
    AC.p0_s0_t31          A.p_balance_31            -1  C.p_balance_31             1
    AC.p0_s0_t31          AC.p0_upper_31             1  AC.p0_lower_31             1
    AC.p0_s0_t32          A.p_balance_32            -1  C.p_balance_32             1
    AC.p0_s0_t32          AC.p0_upper_32             1  AC.p0_lower_32             1
    AC.p0_s0_t33          A.p_balance_33            -1  C.p_balance_33             1
    AC.p0_s0_t33          AC.p0_upper_33             1  AC.p0_lower_33             1
    AC.p0_s0_t34          A.p_balance_34            -1  C.p_balance_34             1
    AC.p0_s0_t34          AC.p0_upper_34             1  AC.p0_lower_34             1
    AC.p0_s0_t35          A.p_balance_35            -1  C.p_balance_35             1
    AC.p0_s0_t35          AC.p0_upper_35             1  AC.p0_lower_35             1
    AC.p0_s0_t36          A.p_balance_36            -1  C.p_balance_36             1
    AC.p0_s0_t36          AC.p0_upper_36             1  AC.p0_lower_36             1
    AC.p0_s0_t37          A.p_balance_37            -1  C.p_balance_37             1
    AC.p0_s0_t37          AC.p0_upper_37             1  AC.p0_lower_37             1
    AC.p0_s0_t38          A.p_balance_38            -1  C.p_balance_38             1
    AC.p0_s0_t38          AC.p0_upper_38             1  AC.p0_lower_38             1
    AC.p0_s0_t39          A.p_balance_39            -1  C.p_balance_39             1
    AC.p0_s0_t39          AC.p0_upper_39             1  AC.p0_lower_39             1
    AC.p0_s0_t40          A.p_balance_40            -1  C.p_balance_40             1
    AC.p0_s0_t40          AC.p0_upper_40             1  AC.p0_lower_40             1
    AC.p0_s0_t41          A.p_balance_41            -1  C.p_balance_41             1
    AC.p0_s0_t41          AC.p0_upper_41             1  AC.p0_lower_41             1
    AC.p0_s0_t42          A.p_balance_42            -1  C.p_balance_42             1
    AC.p0_s0_t42          AC.p0_upper_42             1  AC.p0_lower_42             1
    AC.p0_s0_t43          A.p_balance_43            -1  C.p_balance_43             1
    AC.p0_s0_t43          AC.p0_upper_43             1  AC.p0_lower_43             1
    AC.p0_s0_t44          A.p_balance_44            -1  C.p_balance_44             1
    AC.p0_s0_t44          AC.p0_upper_44             1  AC.p0_lower_44             1
    AC.p0_s0_t45          A.p_balance_45            -1  C.p_balance_45             1
    AC.p0_s0_t45          AC.p0_upper_45             1  AC.p0_lower_45             1
    AC.p0_s0_t46          A.p_balance_46            -1  C.p_balance_46             1
    AC.p0_s0_t46          AC.p0_upper_46             1  AC.p0_lower_46             1
    AC.p0_s0_t47          A.p_balance_47            -1  C.p_balance_47             1
    AC.p0_s0_t47          AC.p0_upper_47             1  AC.p0_lower_47             1
    AC.p0_s0_t48          A.p_balance_48            -1  C.p_balance_48             1
    AC.p0_s0_t48          AC.p0_upper_48             1  AC.p0_lower_48             1
    AC.p0_s0_t49          A.p_balance_49            -1  C.p_balance_49             1
    AC.p0_s0_t49          AC.p0_upper_49             1  AC.p0_lower_49             1
    AC.p0_s0_t50          A.p_balance_50            -1  C.p_balance_50             1
    AC.p0_s0_t50          AC.p0_upper_50             1  AC.p0_lower_50             1
    AC.p0_s0_t51          A.p_balance_51            -1  C.p_balance_51             1
    AC.p0_s0_t51          AC.p0_upper_51             1  AC.p0_lower_51             1
    AC.p0_s0_t52          A.p_balance_52            -1  C.p_balance_52             1
    AC.p0_s0_t52          AC.p0_upper_52             1  AC.p0_lower_52             1
    AC.p0_s0_t53          A.p_balance_53            -1  C.p_balance_53             1
    AC.p0_s0_t53          AC.p0_upper_53             1  AC.p0_lower_53             1
    AC.p0_s0_t54          A.p_balance_54            -1  C.p_balance_54             1
    AC.p0_s0_t54          AC.p0_upper_54             1  AC.p0_lower_54             1
    AC.p0_s0_t55          A.p_balance_55            -1  C.p_balance_55             1
    AC.p0_s0_t55          AC.p0_upper_55             1  AC.p0_lower_55             1
    AC.p0_s0_t56          A.p_balance_56            -1  C.p_balance_56             1
    AC.p0_s0_t56          AC.p0_upper_56             1  AC.p0_lower_56             1
    AC.p0_s0_t57          A.p_balance_57            -1  C.p_balance_57             1
    AC.p0_s0_t57          AC.p0_upper_57             1  AC.p0_lower_57             1
    AC.p0_s0_t58          A.p_balance_58            -1  C.p_balance_58             1
    AC.p0_s0_t58          AC.p0_upper_58             1  AC.p0_lower_58             1
    AC.p0_s0_t59          A.p_balance_59            -1  C.p_balance_59             1
    AC.p0_s0_t59          AC.p0_upper_59             1  AC.p0_lower_59             1
    AC.p0_s0_t60          A.p_balance_60            -1  C.p_balance_60             1
    AC.p0_s0_t60          AC.p0_upper_60             1  AC.p0_lower_60             1
    AC.p0_s0_t61          A.p_balance_61            -1  C.p_balance_61             1
    AC.p0_s0_t61          AC.p0_upper_61             1  AC.p0_lower_61             1
    AC.p0_s0_t62          A.p_balance_62            -1  C.p_balance_62             1
    AC.p0_s0_t62          AC.p0_upper_62             1  AC.p0_lower_62             1
    AC.p0_s0_t63          A.p_balance_63            -1  C.p_balance_63             1
    AC.p0_s0_t63          AC.p0_upper_63             1  AC.p0_lower_63             1
    AC.p0_s0_t64          A.p_balance_64            -1  C.p_balance_64             1
    AC.p0_s0_t64          AC.p0_upper_64             1  AC.p0_lower_64             1
    AC.p0_s0_t65          A.p_balance_65            -1  C.p_balance_65             1
    AC.p0_s0_t65          AC.p0_upper_65             1  AC.p0_lower_65             1
    AC.p0_s0_t66          A.p_balance_66            -1  C.p_balance_66             1
    AC.p0_s0_t66          AC.p0_upper_66             1  AC.p0_lower_66             1
    AC.p0_s0_t67          A.p_balance_67            -1  C.p_balance_67             1
    AC.p0_s0_t67          AC.p0_upper_67             1  AC.p0_lower_67             1
    AC.p0_s0_t68          A.p_balance_68            -1  C.p_balance_68             1
    AC.p0_s0_t68          AC.p0_upper_68             1  AC.p0_lower_68             1
    AC.p0_s0_t69          A.p_balance_69            -1  C.p_balance_69             1
    AC.p0_s0_t69          AC.p0_upper_69             1  AC.p0_lower_69             1
    AC.p0_s0_t70          A.p_balance_70            -1  C.p_balance_70             1
    AC.p0_s0_t70          AC.p0_upper_70             1  AC.p0_lower_70             1
    AC.p0_s0_t71          A.p_balance_71            -1  C.p_balance_71             1
    AC.p0_s0_t71          AC.p0_upper_71             1  AC.p0_lower_71             1
    AC.p0_s0_t72          A.p_balance_72            -1  C.p_balance_72             1
    AC.p0_s0_t72          AC.p0_upper_72             1  AC.p0_lower_72             1
    AC.p0_s0_t73          A.p_balance_73            -1  C.p_balance_73             1
    AC.p0_s0_t73          AC.p0_upper_73             1  AC.p0_lower_73             1
    AC.p0_s0_t74          A.p_balance_74            -1  C.p_balance_74             1
    AC.p0_s0_t74          AC.p0_upper_74             1  AC.p0_lower_74             1
    AC.p0_s0_t75          A.p_balance_75            -1  C.p_balance_75             1
    AC.p0_s0_t75          AC.p0_upper_75             1  AC.p0_lower_75             1
    AC.p0_s0_t76          A.p_balance_76            -1  C.p_balance_76             1
    AC.p0_s0_t76          AC.p0_upper_76             1  AC.p0_lower_76             1
    AC.p0_s0_t77          A.p_balance_77            -1  C.p_balance_77             1
    AC.p0_s0_t77          AC.p0_upper_77             1  AC.p0_lower_77             1
    AC.p0_s0_t78          A.p_balance_78            -1  C.p_balance_78             1
    AC.p0_s0_t78          AC.p0_upper_78             1  AC.p0_lower_78             1
    AC.p0_s0_t79          A.p_balance_79            -1  C.p_balance_79             1
    AC.p0_s0_t79          AC.p0_upper_79             1  AC.p0_lower_79             1
    AC.p0_s0_t80          A.p_balance_80            -1  C.p_balance_80             1
    AC.p0_s0_t80          AC.p0_upper_80             1  AC.p0_lower_80             1
    AC.p0_s0_t81          A.p_balance_81            -1  C.p_balance_81             1
    AC.p0_s0_t81          AC.p0_upper_81             1  AC.p0_lower_81             1
    AC.p0_s0_t82          A.p_balance_82            -1  C.p_balance_82             1
    AC.p0_s0_t82          AC.p0_upper_82             1  AC.p0_lower_82             1
    AC.p0_s0_t83          A.p_balance_83            -1  C.p_balance_83             1
    AC.p0_s0_t83          AC.p0_upper_83             1  AC.p0_lower_83             1
    AC.p0_s0_t84          A.p_balance_84            -1  C.p_balance_84             1
    AC.p0_s0_t84          AC.p0_upper_84             1  AC.p0_lower_84             1
    AC.p0_s0_t85          A.p_balance_85            -1  C.p_balance_85             1
    AC.p0_s0_t85          AC.p0_upper_85             1  AC.p0_lower_85             1
    AC.p0_s0_t86          A.p_balance_86            -1  C.p_balance_86             1
    AC.p0_s0_t86          AC.p0_upper_86             1  AC.p0_lower_86             1
    AC.p0_s0_t87          A.p_balance_87            -1  C.p_balance_87             1
    AC.p0_s0_t87          AC.p0_upper_87             1  AC.p0_lower_87             1
    AC.p0_s0_t88          A.p_balance_88            -1  C.p_balance_88             1
    AC.p0_s0_t88          AC.p0_upper_88             1  AC.p0_lower_88             1
    AC.p0_s0_t89          A.p_balance_89            -1  C.p_balance_89             1
    AC.p0_s0_t89          AC.p0_upper_89             1  AC.p0_lower_89             1
    AC.p0_s0_t90          A.p_balance_90            -1  C.p_balance_90             1
    AC.p0_s0_t90          AC.p0_upper_90             1  AC.p0_lower_90             1
    AC.p0_s0_t91          A.p_balance_91            -1  C.p_balance_91             1
    AC.p0_s0_t91          AC.p0_upper_91             1  AC.p0_lower_91             1
    AC.p0_s0_t92          A.p_balance_92            -1  C.p_balance_92             1
    AC.p0_s0_t92          AC.p0_upper_92             1  AC.p0_lower_92             1
    AC.p0_s0_t93          A.p_balance_93            -1  C.p_balance_93             1
    AC.p0_s0_t93          AC.p0_upper_93             1  AC.p0_lower_93             1
    AC.p0_s0_t94          A.p_balance_94            -1  C.p_balance_94             1
    AC.p0_s0_t94          AC.p0_upper_94             1  AC.p0_lower_94             1
    AC.p0_s0_t95          A.p_balance_95            -1  C.p_balance_95             1
    AC.p0_s0_t95          AC.p0_upper_95             1  AC.p0_lower_95             1
    AC.p0_s0_t96          A.p_balance_96            -1  C.p_balance_96             1
    AC.p0_s0_t96          AC.p0_upper_96             1  AC.p0_lower_96             1
    AC.p0_s0_t97          A.p_balance_97            -1  C.p_balance_97             1
    AC.p0_s0_t97          AC.p0_upper_97             1  AC.p0_lower_97             1
    AC.p0_s0_t98          A.p_balance_98            -1  C.p_balance_98             1
    AC.p0_s0_t98          AC.p0_upper_98             1  AC.p0_lower_98             1
    AC.p0_s0_t99          A.p_balance_99            -1  C.p_balance_99             1
    AC.p0_s0_t99          AC.p0_upper_99             1  AC.p0_lower_99             1
    AC.p0_s0_t100         A.p_balance_100           -1  C.p_balance_100            1
    AC.p0_s0_t100         AC.p0_upper_100            1  AC.p0_lower_100            1
    AC.p0_s0_t101         A.p_balance_101           -1  C.p_balance_101            1
    AC.p0_s0_t101         AC.p0_upper_101            1  AC.p0_lower_101            1
    AC.p0_s0_t102         A.p_balance_102           -1  C.p_balance_102            1
    AC.p0_s0_t102         AC.p0_upper_102            1  AC.p0_lower_102            1
    AC.p0_s0_t103         A.p_balance_103           -1  C.p_balance_103            1
    AC.p0_s0_t103         AC.p0_upper_103            1  AC.p0_lower_103            1
    AC.p0_s0_t104         A.p_balance_104           -1  C.p_balance_104            1
    AC.p0_s0_t104         AC.p0_upper_104            1  AC.p0_lower_104            1
    AC.p0_s0_t105         A.p_balance_105           -1  C.p_balance_105            1
    AC.p0_s0_t105         AC.p0_upper_105            1  AC.p0_lower_105            1
    AC.p0_s0_t106         A.p_balance_106           -1  C.p_balance_106            1
    AC.p0_s0_t106         AC.p0_upper_106            1  AC.p0_lower_106            1
    AC.p0_s0_t107         A.p_balance_107           -1  C.p_balance_107            1
    AC.p0_s0_t107         AC.p0_upper_107            1  AC.p0_lower_107            1
    AC.p0_s0_t108         A.p_balance_108           -1  C.p_balance_108            1
    AC.p0_s0_t108         AC.p0_upper_108            1  AC.p0_lower_108            1
    AC.p0_s0_t109         A.p_balance_109           -1  C.p_balance_109            1
    AC.p0_s0_t109         AC.p0_upper_109            1  AC.p0_lower_109            1
    AC.p0_s0_t110         A.p_balance_110           -1  C.p_balance_110            1
    AC.p0_s0_t110         AC.p0_upper_110            1  AC.p0_lower_110            1
    AC.p0_s0_t111         A.p_balance_111           -1  C.p_balance_111            1
    AC.p0_s0_t111         AC.p0_upper_111            1  AC.p0_lower_111            1
    AC.p0_s0_t112         A.p_balance_112           -1  C.p_balance_112            1
    AC.p0_s0_t112         AC.p0_upper_112            1  AC.p0_lower_112            1
    AC.p0_s0_t113         A.p_balance_113           -1  C.p_balance_113            1
    AC.p0_s0_t113         AC.p0_upper_113            1  AC.p0_lower_113            1
    AC.p0_s0_t114         A.p_balance_114           -1  C.p_balance_114            1
    AC.p0_s0_t114         AC.p0_upper_114            1  AC.p0_lower_114            1
    AC.p0_s0_t115         A.p_balance_115           -1  C.p_balance_115            1
    AC.p0_s0_t115         AC.p0_upper_115            1  AC.p0_lower_115            1
    AC.p0_s0_t116         A.p_balance_116           -1  C.p_balance_116            1
    AC.p0_s0_t116         AC.p0_upper_116            1  AC.p0_lower_116            1
    AC.p0_s0_t117         A.p_balance_117           -1  C.p_balance_117            1
    AC.p0_s0_t117         AC.p0_upper_117            1  AC.p0_lower_117            1
    AC.p0_s0_t118         A.p_balance_118           -1  C.p_balance_118            1
    AC.p0_s0_t118         AC.p0_upper_118            1  AC.p0_lower_118            1
    AC.p0_s0_t119         A.p_balance_119           -1  C.p_balance_119            1
    AC.p0_s0_t119         AC.p0_upper_119            1  AC.p0_lower_119            1
    AC.p0_s0_t120         A.p_balance_120           -1  C.p_balance_120            1
    AC.p0_s0_t120         AC.p0_upper_120            1  AC.p0_lower_120            1
    AC.p0_s0_t121         A.p_balance_121           -1  C.p_balance_121            1
    AC.p0_s0_t121         AC.p0_upper_121            1  AC.p0_lower_121            1
    AC.p0_s0_t122         A.p_balance_122           -1  C.p_balance_122            1
    AC.p0_s0_t122         AC.p0_upper_122            1  AC.p0_lower_122            1
    AC.p0_s0_t123         A.p_balance_123           -1  C.p_balance_123            1
    AC.p0_s0_t123         AC.p0_upper_123            1  AC.p0_lower_123            1
    AC.p0_s0_t124         A.p_balance_124           -1  C.p_balance_124            1
    AC.p0_s0_t124         AC.p0_upper_124            1  AC.p0_lower_124            1
    AC.p0_s0_t125         A.p_balance_125           -1  C.p_balance_125            1
    AC.p0_s0_t125         AC.p0_upper_125            1  AC.p0_lower_125            1
    AC.p0_s0_t126         A.p_balance_126           -1  C.p_balance_126            1
    AC.p0_s0_t126         AC.p0_upper_126            1  AC.p0_lower_126            1
    AC.p0_s0_t127         A.p_balance_127           -1  C.p_balance_127            1
    AC.p0_s0_t127         AC.p0_upper_127            1  AC.p0_lower_127            1
    AC.p0_s0_t128         A.p_balance_128           -1  C.p_balance_128            1
    AC.p0_s0_t128         AC.p0_upper_128            1  AC.p0_lower_128            1
    AC.p0_s0_t129         A.p_balance_129           -1  C.p_balance_129            1
    AC.p0_s0_t129         AC.p0_upper_129            1  AC.p0_lower_129            1
    AC.p0_s0_t130         A.p_balance_130           -1  C.p_balance_130            1
    AC.p0_s0_t130         AC.p0_upper_130            1  AC.p0_lower_130            1
    AC.p0_s0_t131         A.p_balance_131           -1  C.p_balance_131            1
    AC.p0_s0_t131         AC.p0_upper_131            1  AC.p0_lower_131            1
    AC.p0_s0_t132         A.p_balance_132           -1  C.p_balance_132            1
    AC.p0_s0_t132         AC.p0_upper_132            1  AC.p0_lower_132            1
    AC.p0_s0_t133         A.p_balance_133           -1  C.p_balance_133            1
    AC.p0_s0_t133         AC.p0_upper_133            1  AC.p0_lower_133            1
    AC.p0_s0_t134         A.p_balance_134           -1  C.p_balance_134            1
    AC.p0_s0_t134         AC.p0_upper_134            1  AC.p0_lower_134            1
    AC.p0_s0_t135         A.p_balance_135           -1  C.p_balance_135            1
    AC.p0_s0_t135         AC.p0_upper_135            1  AC.p0_lower_135            1
    AC.p0_s0_t136         A.p_balance_136           -1  C.p_balance_136            1
    AC.p0_s0_t136         AC.p0_upper_136            1  AC.p0_lower_136            1
    AC.p0_s0_t137         A.p_balance_137           -1  C.p_balance_137            1
    AC.p0_s0_t137         AC.p0_upper_137            1  AC.p0_lower_137            1
    AC.p0_s0_t138         A.p_balance_138           -1  C.p_balance_138            1
    AC.p0_s0_t138         AC.p0_upper_138            1  AC.p0_lower_138            1
    AC.p0_s0_t139         A.p_balance_139           -1  C.p_balance_139            1
    AC.p0_s0_t139         AC.p0_upper_139            1  AC.p0_lower_139            1
    AC.p0_s0_t140         A.p_balance_140           -1  C.p_balance_140            1
    AC.p0_s0_t140         AC.p0_upper_140            1  AC.p0_lower_140            1
    AC.p0_s0_t141         A.p_balance_141           -1  C.p_balance_141            1
    AC.p0_s0_t141         AC.p0_upper_141            1  AC.p0_lower_141            1
    AC.p0_s0_t142         A.p_balance_142           -1  C.p_balance_142            1
    AC.p0_s0_t142         AC.p0_upper_142            1  AC.p0_lower_142            1
    AC.p0_s0_t143         A.p_balance_143           -1  C.p_balance_143            1
    AC.p0_s0_t143         AC.p0_upper_143            1  AC.p0_lower_143            1
    AC.p0_s0_t144         A.p_balance_144           -1  C.p_balance_144            1
    AC.p0_s0_t144         AC.p0_upper_144            1  AC.p0_lower_144            1
    AC.p0_s0_t145         A.p_balance_145           -1  C.p_balance_145            1
    AC.p0_s0_t145         AC.p0_upper_145            1  AC.p0_lower_145            1
    AC.p0_s0_t146         A.p_balance_146           -1  C.p_balance_146            1
    AC.p0_s0_t146         AC.p0_upper_146            1  AC.p0_lower_146            1
    AC.p0_s0_t147         A.p_balance_147           -1  C.p_balance_147            1
    AC.p0_s0_t147         AC.p0_upper_147            1  AC.p0_lower_147            1
    AC.p0_s0_t148         A.p_balance_148           -1  C.p_balance_148            1
    AC.p0_s0_t148         AC.p0_upper_148            1  AC.p0_lower_148            1
    AC.p0_s0_t149         A.p_balance_149           -1  C.p_balance_149            1
    AC.p0_s0_t149         AC.p0_upper_149            1  AC.p0_lower_149            1
    AC.p0_s0_t150         A.p_balance_150           -1  C.p_balance_150            1
    AC.p0_s0_t150         AC.p0_upper_150            1  AC.p0_lower_150            1
    AC.p0_s0_t151         A.p_balance_151           -1  C.p_balance_151            1
    AC.p0_s0_t151         AC.p0_upper_151            1  AC.p0_lower_151            1
    AC.p0_s0_t152         A.p_balance_152           -1  C.p_balance_152            1
    AC.p0_s0_t152         AC.p0_upper_152            1  AC.p0_lower_152            1
    AC.p0_s0_t153         A.p_balance_153           -1  C.p_balance_153            1
    AC.p0_s0_t153         AC.p0_upper_153            1  AC.p0_lower_153            1
    AC.p0_s0_t154         A.p_balance_154           -1  C.p_balance_154            1
    AC.p0_s0_t154         AC.p0_upper_154            1  AC.p0_lower_154            1
    AC.p0_s0_t155         A.p_balance_155           -1  C.p_balance_155            1
    AC.p0_s0_t155         AC.p0_upper_155            1  AC.p0_lower_155            1
    AC.p0_s0_t156         A.p_balance_156           -1  C.p_balance_156            1
    AC.p0_s0_t156         AC.p0_upper_156            1  AC.p0_lower_156            1
    AC.p0_s0_t157         A.p_balance_157           -1  C.p_balance_157            1
    AC.p0_s0_t157         AC.p0_upper_157            1  AC.p0_lower_157            1
    AC.p0_s0_t158         A.p_balance_158           -1  C.p_balance_158            1
    AC.p0_s0_t158         AC.p0_upper_158            1  AC.p0_lower_158            1
    AC.p0_s0_t159         A.p_balance_159           -1  C.p_balance_159            1
    AC.p0_s0_t159         AC.p0_upper_159            1  AC.p0_lower_159            1
    AC.p0_s0_t160         A.p_balance_160           -1  C.p_balance_160            1
    AC.p0_s0_t160         AC.p0_upper_160            1  AC.p0_lower_160            1
    AC.p0_s0_t161         A.p_balance_161           -1  C.p_balance_161            1
    AC.p0_s0_t161         AC.p0_upper_161            1  AC.p0_lower_161            1
    AC.p0_s0_t162         A.p_balance_162           -1  C.p_balance_162            1
    AC.p0_s0_t162         AC.p0_upper_162            1  AC.p0_lower_162            1
    AC.p0_s0_t163         A.p_balance_163           -1  C.p_balance_163            1
    AC.p0_s0_t163         AC.p0_upper_163            1  AC.p0_lower_163            1
    AC.p0_s0_t164         A.p_balance_164           -1  C.p_balance_164            1
    AC.p0_s0_t164         AC.p0_upper_164            1  AC.p0_lower_164            1
    AC.p0_s0_t165         A.p_balance_165           -1  C.p_balance_165            1
    AC.p0_s0_t165         AC.p0_upper_165            1  AC.p0_lower_165            1
    AC.p0_s0_t166         A.p_balance_166           -1  C.p_balance_166            1
    AC.p0_s0_t166         AC.p0_upper_166            1  AC.p0_lower_166            1
    AC.p0_s0_t167         A.p_balance_167           -1  C.p_balance_167            1
    AC.p0_s0_t167         AC.p0_upper_167            1  AC.p0_lower_167            1
RHS
    RHS                   A.p_balance_0             -0  A.p_balance_1             -0
    RHS                   A.p_balance_2             -0  A.p_balance_3             -0
    RHS                   A.p_balance_4             -0  A.p_balance_5             -0
    RHS                   A.p_balance_6             -0  A.p_balance_7             -0
    RHS                   A.p_balance_8             -0  A.p_balance_9             -0
    RHS                   A.p_balance_10            -0  A.p_balance_11            -0
    RHS                   A.p_balance_12            -0  A.p_balance_13            -0
    RHS                   A.p_balance_14            -0  A.p_balance_15            -0
    RHS                   A.p_balance_16            -0  A.p_balance_17            -0
    RHS                   A.p_balance_18            -0  A.p_balance_19            -0
    RHS                   A.p_balance_20            -0  A.p_balance_21            -0
    RHS                   A.p_balance_22            -0  A.p_balance_23            -0
    RHS                   A.p_balance_24            -0  A.p_balance_25            -0
    RHS                   A.p_balance_26            -0  A.p_balance_27            -0
    RHS                   A.p_balance_28            -0  A.p_balance_29            -0
    RHS                   A.p_balance_30            -0  A.p_balance_31            -0
    RHS                   A.p_balance_32            -0  A.p_balance_33            -0
    RHS                   A.p_balance_34            -0  A.p_balance_35            -0
    RHS                   A.p_balance_36            -0  A.p_balance_37            -0
    RHS                   A.p_balance_38            -0  A.p_balance_39            -0
    RHS                   A.p_balance_40            -0  A.p_balance_41            -0
    RHS                   A.p_balance_42            -0  A.p_balance_43            -0
    RHS                   A.p_balance_44            -0  A.p_balance_45            -0
    RHS                   A.p_balance_46            -0  A.p_balance_47            -0
    RHS                   A.p_balance_48            -0  A.p_balance_49            -0
    RHS                   A.p_balance_50            -0  A.p_balance_51            -0
    RHS                   A.p_balance_52            -0  A.p_balance_53            -0
    RHS                   A.p_balance_54            -0  A.p_balance_55            -0
    RHS                   A.p_balance_56            -0  A.p_balance_57            -0
    RHS                   A.p_balance_58            -0  A.p_balance_59            -0
    RHS                   A.p_balance_60            -0  A.p_balance_61            -0
    RHS                   A.p_balance_62            -0  A.p_balance_63            -0
    RHS                   A.p_balance_64            -0  A.p_balance_65            -0
    RHS                   A.p_balance_66            -0  A.p_balance_67            -0
    RHS                   A.p_balance_68            -0  A.p_balance_69            -0
    RHS                   A.p_balance_70            -0  A.p_balance_71            -0
    RHS                   A.p_balance_72            -0  A.p_balance_73            -0
    RHS                   A.p_balance_74            -0  A.p_balance_75            -0
    RHS                   A.p_balance_76            -0  A.p_balance_77            -0
    RHS                   A.p_balance_78            -0  A.p_balance_79            -0
    RHS                   A.p_balance_80            -0  A.p_balance_81            -0
    RHS                   A.p_balance_82            -0  A.p_balance_83            -0
    RHS                   A.p_balance_84            -0  A.p_balance_85            -0
    RHS                   A.p_balance_86            -0  A.p_balance_87            -0
    RHS                   A.p_balance_88            -0  A.p_balance_89            -0
    RHS                   A.p_balance_90            -0  A.p_balance_91            -0
    RHS                   A.p_balance_92            -0  A.p_balance_93            -0
    RHS                   A.p_balance_94            -0  A.p_balance_95            -0
    RHS                   A.p_balance_96            -0  A.p_balance_97            -0
    RHS                   A.p_balance_98            -0  A.p_balance_99            -0
    RHS                   A.p_balance_100           -0  A.p_balance_101           -0
    RHS                   A.p_balance_102           -0  A.p_balance_103           -0
    RHS                   A.p_balance_104           -0  A.p_balance_105           -0
    RHS                   A.p_balance_106           -0  A.p_balance_107           -0
    RHS                   A.p_balance_108           -0  A.p_balance_109           -0
    RHS                   A.p_balance_110           -0  A.p_balance_111           -0
    RHS                   A.p_balance_112           -0  A.p_balance_113           -0
    RHS                   A.p_balance_114           -0  A.p_balance_115           -0
    RHS                   A.p_balance_116           -0  A.p_balance_117           -0
    RHS                   A.p_balance_118           -0  A.p_balance_119           -0
    RHS                   A.p_balance_120           -0  A.p_balance_121           -0
    RHS                   A.p_balance_122           -0  A.p_balance_123           -0
    RHS                   A.p_balance_124           -0  A.p_balance_125           -0
    RHS                   A.p_balance_126           -0  A.p_balance_127           -0
    RHS                   A.p_balance_128           -0  A.p_balance_129           -0
    RHS                   A.p_balance_130           -0  A.p_balance_131           -0
    RHS                   A.p_balance_132           -0  A.p_balance_133           -0
    RHS                   A.p_balance_134           -0  A.p_balance_135           -0
    RHS                   A.p_balance_136           -0  A.p_balance_137           -0
    RHS                   A.p_balance_138           -0  A.p_balance_139           -0
    RHS                   A.p_balance_140           -0  A.p_balance_141           -0
    RHS                   A.p_balance_142           -0  A.p_balance_143           -0
    RHS                   A.p_balance_144           -0  A.p_balance_145           -0
    RHS                   A.p_balance_146           -0  A.p_balance_147           -0
    RHS                   A.p_balance_148           -0  A.p_balance_149           -0
    RHS                   A.p_balance_150           -0  A.p_balance_151           -0
    RHS                   A.p_balance_152           -0  A.p_balance_153           -0
    RHS                   A.p_balance_154           -0  A.p_balance_155           -0
    RHS                   A.p_balance_156           -0  A.p_balance_157           -0
    RHS                   A.p_balance_158           -0  A.p_balance_159           -0
    RHS                   A.p_balance_160           -0  A.p_balance_161           -0
    RHS                   A.p_balance_162           -0  A.p_balance_163           -0
    RHS                   A.p_balance_164           -0  A.p_balance_165           -0
    RHS                   A.p_balance_166           -0  A.p_balance_167           -0
    RHS                   A.q_balance               -0  B.p_balance_0             -0
    RHS                   B.p_balance_1             -0  B.p_balance_2             -0
    RHS                   B.p_balance_3             -0  B.p_balance_4             -0
    RHS                   B.p_balance_5             -0  B.p_balance_6             -0
    RHS                   B.p_balance_7             -0  B.p_balance_8             -0
    RHS                   B.p_balance_9             -0  B.p_balance_10            -0
    RHS                   B.p_balance_11            -0  B.p_balance_12            -0
    RHS                   B.p_balance_13            -0  B.p_balance_14            -0
    RHS                   B.p_balance_15            -0  B.p_balance_16            -0
    RHS                   B.p_balance_17            -0  B.p_balance_18            -0
    RHS                   B.p_balance_19            -0  B.p_balance_20            -0
    RHS                   B.p_balance_21            -0  B.p_balance_22            -0
    RHS                   B.p_balance_23            -0  B.p_balance_24            -0
    RHS                   B.p_balance_25            -0  B.p_balance_26            -0
    RHS                   B.p_balance_27            -0  B.p_balance_28            -0
    RHS                   B.p_balance_29            -0  B.p_balance_30            -0
    RHS                   B.p_balance_31            -0  B.p_balance_32            -0
    RHS                   B.p_balance_33            -0  B.p_balance_34            -0
    RHS                   B.p_balance_35            -0  B.p_balance_36            -0
    RHS                   B.p_balance_37            -0  B.p_balance_38            -0
    RHS                   B.p_balance_39            -0  B.p_balance_40            -0
    RHS                   B.p_balance_41            -0  B.p_balance_42            -0
    RHS                   B.p_balance_43            -0  B.p_balance_44            -0
    RHS                   B.p_balance_45            -0  B.p_balance_46            -0
    RHS                   B.p_balance_47            -0  B.p_balance_48            -0
    RHS                   B.p_balance_49            -0  B.p_balance_50            -0
    RHS                   B.p_balance_51            -0  B.p_balance_52            -0
    RHS                   B.p_balance_53            -0  B.p_balance_54            -0
    RHS                   B.p_balance_55            -0  B.p_balance_56            -0
    RHS                   B.p_balance_57            -0  B.p_balance_58            -0
    RHS                   B.p_balance_59            -0  B.p_balance_60            -0
    RHS                   B.p_balance_61            -0  B.p_balance_62            -0
    RHS                   B.p_balance_63            -0  B.p_balance_64            -0
    RHS                   B.p_balance_65            -0  B.p_balance_66            -0
    RHS                   B.p_balance_67            -0  B.p_balance_68            -0
    RHS                   B.p_balance_69            -0  B.p_balance_70            -0
    RHS                   B.p_balance_71            -0  B.p_balance_72            -0
    RHS                   B.p_balance_73            -0  B.p_balance_74            -0
    RHS                   B.p_balance_75            -0  B.p_balance_76            -0
    RHS                   B.p_balance_77            -0  B.p_balance_78            -0
    RHS                   B.p_balance_79            -0  B.p_balance_80            -0
    RHS                   B.p_balance_81            -0  B.p_balance_82            -0
    RHS                   B.p_balance_83            -0  B.p_balance_84            -0
    RHS                   B.p_balance_85            -0  B.p_balance_86            -0
    RHS                   B.p_balance_87            -0  B.p_balance_88            -0
    RHS                   B.p_balance_89            -0  B.p_balance_90            -0
    RHS                   B.p_balance_91            -0  B.p_balance_92            -0
    RHS                   B.p_balance_93            -0  B.p_balance_94            -0
    RHS                   B.p_balance_95            -0  B.p_balance_96            -0
    RHS                   B.p_balance_97            -0  B.p_balance_98            -0
    RHS                   B.p_balance_99            -0  B.p_balance_100           -0
    RHS                   B.p_balance_101           -0  B.p_balance_102           -0
    RHS                   B.p_balance_103           -0  B.p_balance_104           -0
    RHS                   B.p_balance_105           -0  B.p_balance_106           -0
    RHS                   B.p_balance_107           -0  B.p_balance_108           -0
    RHS                   B.p_balance_109           -0  B.p_balance_110           -0
    RHS                   B.p_balance_111           -0  B.p_balance_112           -0
    RHS                   B.p_balance_113           -0  B.p_balance_114           -0
    RHS                   B.p_balance_115           -0  B.p_balance_116           -0
    RHS                   B.p_balance_117           -0  B.p_balance_118           -0
    RHS                   B.p_balance_119           -0  B.p_balance_120           -0
    RHS                   B.p_balance_121           -0  B.p_balance_122           -0
    RHS                   B.p_balance_123           -0  B.p_balance_124           -0
    RHS                   B.p_balance_125           -0  B.p_balance_126           -0
    RHS                   B.p_balance_127           -0  B.p_balance_128           -0
    RHS                   B.p_balance_129           -0  B.p_balance_130           -0
    RHS                   B.p_balance_131           -0  B.p_balance_132           -0
    RHS                   B.p_balance_133           -0  B.p_balance_134           -0
    RHS                   B.p_balance_135           -0  B.p_balance_136           -0
    RHS                   B.p_balance_137           -0  B.p_balance_138           -0
    RHS                   B.p_balance_139           -0  B.p_balance_140           -0
    RHS                   B.p_balance_141           -0  B.p_balance_142           -0
    RHS                   B.p_balance_143           -0  B.p_balance_144           -0
    RHS                   B.p_balance_145           -0  B.p_balance_146           -0
    RHS                   B.p_balance_147           -0  B.p_balance_148           -0
    RHS                   B.p_balance_149           -0  B.p_balance_150           -0
    RHS                   B.p_balance_151           -0  B.p_balance_152           -0
    RHS                   B.p_balance_153           -0  B.p_balance_154           -0
    RHS                   B.p_balance_155           -0  B.p_balance_156           -0
    RHS                   B.p_balance_157           -0  B.p_balance_158           -0
    RHS                   B.p_balance_159           -0  B.p_balance_160           -0
    RHS                   B.p_balance_161           -0  B.p_balance_162           -0
    RHS                   B.p_balance_163           -0  B.p_balance_164           -0
    RHS                   B.p_balance_165           -0  B.p_balance_166           -0
    RHS                   B.p_balance_167           -0  B.q_balance               -0
    RHS                   C.p_balance_0             50  C.p_balance_1             52
    RHS                   C.p_balance_2             57  C.p_balance_3             65
    RHS                   C.p_balance_4             75  C.p_balance_5             87
    RHS                   C.p_balance_6            100  C.p_balance_7            113
    RHS                   C.p_balance_8            125  C.p_balance_9            135
    RHS                   C.p_balance_10           143  C.p_balance_11           148
    RHS                   C.p_balance_12           150  C.p_balance_13           148
    RHS                   C.p_balance_14           143  C.p_balance_15           135
    RHS                   C.p_balance_16           125  C.p_balance_17           113
    RHS                   C.p_balance_18           100  C.p_balance_19            87
    RHS                   C.p_balance_20            75  C.p_balance_21            65
    RHS                   C.p_balance_22            57  C.p_balance_23            52
    RHS                   C.p_balance_24            50  C.p_balance_25            52
    RHS                   C.p_balance_26            57  C.p_balance_27            65
    RHS                   C.p_balance_28            75  C.p_balance_29            87
    RHS                   C.p_balance_30           100  C.p_balance_31           113
    RHS                   C.p_balance_32           125  C.p_balance_33           135
    RHS                   C.p_balance_34           143  C.p_balance_35           148
    RHS                   C.p_balance_36           150  C.p_balance_37           148
    RHS                   C.p_balance_38           143  C.p_balance_39           135
    RHS                   C.p_balance_40           125  C.p_balance_41           113
    RHS                   C.p_balance_42           100  C.p_balance_43            87
    RHS                   C.p_balance_44            75  C.p_balance_45            65
    RHS                   C.p_balance_46            57  C.p_balance_47            52
    RHS                   C.p_balance_48            50  C.p_balance_49            52
    RHS                   C.p_balance_50            57  C.p_balance_51            65
    RHS                   C.p_balance_52            75  C.p_balance_53            87
    RHS                   C.p_balance_54           100  C.p_balance_55           113
    RHS                   C.p_balance_56           125  C.p_balance_57           135
    RHS                   C.p_balance_58           143  C.p_balance_59           148
    RHS                   C.p_balance_60           150  C.p_balance_61           148
    RHS                   C.p_balance_62           143  C.p_balance_63           135
    RHS                   C.p_balance_64           125  C.p_balance_65           113
    RHS                   C.p_balance_66           100  C.p_balance_67            87
    RHS                   C.p_balance_68            75  C.p_balance_69            65
    RHS                   C.p_balance_70            57  C.p_balance_71            52
    RHS                   C.p_balance_72            50  C.p_balance_73            52
    RHS                   C.p_balance_74            57  C.p_balance_75            65
    RHS                   C.p_balance_76            75  C.p_balance_77            87
    RHS                   C.p_balance_78           100  C.p_balance_79           113
    RHS                   C.p_balance_80           125  C.p_balance_81           135
    RHS                   C.p_balance_82           143  C.p_balance_83           148
    RHS                   C.p_balance_84           150  C.p_balance_85           148
    RHS                   C.p_balance_86           143  C.p_balance_87           135
    RHS                   C.p_balance_88           125  C.p_balance_89           113
    RHS                   C.p_balance_90           100  C.p_balance_91            87
    RHS                   C.p_balance_92            75  C.p_balance_93            65
    RHS                   C.p_balance_94            57  C.p_balance_95            52
    RHS                   C.p_balance_96            50  C.p_balance_97            52
    RHS                   C.p_balance_98            57  C.p_balance_99            65
    RHS                   C.p_balance_100           75  C.p_balance_101           87
    RHS                   C.p_balance_102          100  C.p_balance_103          113
    RHS                   C.p_balance_104          125  C.p_balance_105          135
    RHS                   C.p_balance_106          143  C.p_balance_107          148
    RHS                   C.p_balance_108          150  C.p_balance_109          148
    RHS                   C.p_balance_110          143  C.p_balance_111          135
    RHS                   C.p_balance_112          125  C.p_balance_113          113
    RHS                   C.p_balance_114          100  C.p_balance_115           87
    RHS                   C.p_balance_116           75  C.p_balance_117           65
    RHS                   C.p_balance_118           57  C.p_balance_119           52
    RHS                   C.p_balance_120           30  C.p_balance_121           32
    RHS                   C.p_balance_122           37  C.p_balance_123           45
    RHS                   C.p_balance_124           55  C.p_balance_125           67
    RHS                   C.p_balance_126           80  C.p_balance_127           93
    RHS                   C.p_balance_128          105  C.p_balance_129          115
    RHS                   C.p_balance_130          123  C.p_balance_131          128
    RHS                   C.p_balance_132          130  C.p_balance_133          128
    RHS                   C.p_balance_134          123  C.p_balance_135          115
    RHS                   C.p_balance_136          105  C.p_balance_137           93
    RHS                   C.p_balance_138           80  C.p_balance_139           67
    RHS                   C.p_balance_140           55  C.p_balance_141           45
    RHS                   C.p_balance_142           37  C.p_balance_143           32
    RHS                   C.p_balance_144           30  C.p_balance_145           32
    RHS                   C.p_balance_146           37  C.p_balance_147           45
    RHS                   C.p_balance_148           55  C.p_balance_149           67
    RHS                   C.p_balance_150           80  C.p_balance_151           93
    RHS                   C.p_balance_152          105  C.p_balance_153          115
    RHS                   C.p_balance_154          123  C.p_balance_155          128
    RHS                   C.p_balance_156          130  C.p_balance_157          128
    RHS                   C.p_balance_158          123  C.p_balance_159          115
    RHS                   C.p_balance_160          105  C.p_balance_161           93
    RHS                   C.p_balance_162           80  C.p_balance_163           67
    RHS                   C.p_balance_164           55  C.p_balance_165           45
    RHS                   C.p_balance_166           37  C.p_balance_167           32
    RHS                   C.q_balance               -0  G_A.min_dispatch_0        -0
    RHS                   G_A.min_dispatch_1        -0  G_A.min_dispatch_2        -0
    RHS                   G_A.min_dispatch_3        -0  G_A.min_dispatch_4        -0
    RHS                   G_A.min_dispatch_5        -0  G_A.min_dispatch_6        -0
    RHS                   G_A.min_dispatch_7        -0  G_A.min_dispatch_8        -0
    RHS                   G_A.min_dispatch_9        -0  G_A.min_dispatch_10       -0
    RHS                   G_A.min_dispatch_11       -0  G_A.min_dispatch_12       -0
    RHS                   G_A.min_dispatch_13       -0  G_A.min_dispatch_14       -0
    RHS                   G_A.min_dispatch_15       -0  G_A.min_dispatch_16       -0
    RHS                   G_A.min_dispatch_17       -0  G_A.min_dispatch_18       -0
    RHS                   G_A.min_dispatch_19       -0  G_A.min_dispatch_20       -0
    RHS                   G_A.min_dispatch_21       -0  G_A.min_dispatch_22       -0
    RHS                   G_A.min_dispatch_23       -0  G_A.min_dispatch_24       -0
    RHS                   G_A.min_dispatch_25       -0  G_A.min_dispatch_26       -0
    RHS                   G_A.min_dispatch_27       -0  G_A.min_dispatch_28       -0
    RHS                   G_A.min_dispatch_29       -0  G_A.min_dispatch_30       -0
    RHS                   G_A.min_dispatch_31       -0  G_A.min_dispatch_32       -0
    RHS                   G_A.min_dispatch_33       -0  G_A.min_dispatch_34       -0
    RHS                   G_A.min_dispatch_35       -0  G_A.min_dispatch_36       -0
    RHS                   G_A.min_dispatch_37       -0  G_A.min_dispatch_38       -0
    RHS                   G_A.min_dispatch_39       -0  G_A.min_dispatch_40       -0
    RHS                   G_A.min_dispatch_41       -0  G_A.min_dispatch_42       -0
    RHS                   G_A.min_dispatch_43       -0  G_A.min_dispatch_44       -0
    RHS                   G_A.min_dispatch_45       -0  G_A.min_dispatch_46       -0
    RHS                   G_A.min_dispatch_47       -0  G_A.min_dispatch_48       -0
    RHS                   G_A.min_dispatch_49       -0  G_A.min_dispatch_50       -0
    RHS                   G_A.min_dispatch_51       -0  G_A.min_dispatch_52       -0
    RHS                   G_A.min_dispatch_53       -0  G_A.min_dispatch_54       -0
    RHS                   G_A.min_dispatch_55       -0  G_A.min_dispatch_56       -0
    RHS                   G_A.min_dispatch_57       -0  G_A.min_dispatch_58       -0
    RHS                   G_A.min_dispatch_59       -0  G_A.min_dispatch_60       -0
    RHS                   G_A.min_dispatch_61       -0  G_A.min_dispatch_62       -0
    RHS                   G_A.min_dispatch_63       -0  G_A.min_dispatch_64       -0
    RHS                   G_A.min_dispatch_65       -0  G_A.min_dispatch_66       -0
    RHS                   G_A.min_dispatch_67       -0  G_A.min_dispatch_68       -0
    RHS                   G_A.min_dispatch_69       -0  G_A.min_dispatch_70       -0
    RHS                   G_A.min_dispatch_71       -0  G_A.min_dispatch_72       -0
    RHS                   G_A.min_dispatch_73       -0  G_A.min_dispatch_74       -0
    RHS                   G_A.min_dispatch_75       -0  G_A.min_dispatch_76       -0
    RHS                   G_A.min_dispatch_77       -0  G_A.min_dispatch_78       -0
    RHS                   G_A.min_dispatch_79       -0  G_A.min_dispatch_80       -0
    RHS                   G_A.min_dispatch_81       -0  G_A.min_dispatch_82       -0
    RHS                   G_A.min_dispatch_83       -0  G_A.min_dispatch_84       -0
    RHS                   G_A.min_dispatch_85       -0  G_A.min_dispatch_86       -0
    RHS                   G_A.min_dispatch_87       -0  G_A.min_dispatch_88       -0
    RHS                   G_A.min_dispatch_89       -0  G_A.min_dispatch_90       -0
    RHS                   G_A.min_dispatch_91       -0  G_A.min_dispatch_92       -0
    RHS                   G_A.min_dispatch_93       -0  G_A.min_dispatch_94       -0
    RHS                   G_A.min_dispatch_95       -0  G_A.min_dispatch_96       -0
    RHS                   G_A.min_dispatch_97       -0  G_A.min_dispatch_98       -0
    RHS                   G_A.min_dispatch_99       -0  G_A.min_dispatch_100      -0
    RHS                   G_A.min_dispatch_101      -0  G_A.min_dispatch_102      -0
    RHS                   G_A.min_dispatch_103      -0  G_A.min_dispatch_104      -0
    RHS                   G_A.min_dispatch_105      -0  G_A.min_dispatch_106      -0
    RHS                   G_A.min_dispatch_107      -0  G_A.min_dispatch_108      -0
    RHS                   G_A.min_dispatch_109      -0  G_A.min_dispatch_110      -0
    RHS                   G_A.min_dispatch_111      -0  G_A.min_dispatch_112      -0
    RHS                   G_A.min_dispatch_113      -0  G_A.min_dispatch_114      -0
    RHS                   G_A.min_dispatch_115      -0  G_A.min_dispatch_116      -0
    RHS                   G_A.min_dispatch_117      -0  G_A.min_dispatch_118      -0
    RHS                   G_A.min_dispatch_119      -0  G_A.min_dispatch_120      -0
    RHS                   G_A.min_dispatch_121      -0  G_A.min_dispatch_122      -0
    RHS                   G_A.min_dispatch_123      -0  G_A.min_dispatch_124      -0
    RHS                   G_A.min_dispatch_125      -0  G_A.min_dispatch_126      -0
    RHS                   G_A.min_dispatch_127      -0  G_A.min_dispatch_128      -0
    RHS                   G_A.min_dispatch_129      -0  G_A.min_dispatch_130      -0
    RHS                   G_A.min_dispatch_131      -0  G_A.min_dispatch_132      -0
    RHS                   G_A.min_dispatch_133      -0  G_A.min_dispatch_134      -0
    RHS                   G_A.min_dispatch_135      -0  G_A.min_dispatch_136      -0
    RHS                   G_A.min_dispatch_137      -0  G_A.min_dispatch_138      -0
    RHS                   G_A.min_dispatch_139      -0  G_A.min_dispatch_140      -0
    RHS                   G_A.min_dispatch_141      -0  G_A.min_dispatch_142      -0
    RHS                   G_A.min_dispatch_143      -0  G_A.min_dispatch_144      -0
    RHS                   G_A.min_dispatch_145      -0  G_A.min_dispatch_146      -0
    RHS                   G_A.min_dispatch_147      -0  G_A.min_dispatch_148      -0
    RHS                   G_A.min_dispatch_149      -0  G_A.min_dispatch_150      -0
    RHS                   G_A.min_dispatch_151      -0  G_A.min_dispatch_152      -0
    RHS                   G_A.min_dispatch_153      -0  G_A.min_dispatch_154      -0
    RHS                   G_A.min_dispatch_155      -0  G_A.min_dispatch_156      -0
    RHS                   G_A.min_dispatch_157      -0  G_A.min_dispatch_158      -0
    RHS                   G_A.min_dispatch_159      -0  G_A.min_dispatch_160      -0
    RHS                   G_A.min_dispatch_161      -0  G_A.min_dispatch_162      -0
    RHS                   G_A.min_dispatch_163      -0  G_A.min_dispatch_164      -0
    RHS                   G_A.min_dispatch_165      -0  G_A.min_dispatch_166      -0
    RHS                   G_A.min_dispatch_167      -0  G_A.max_dispatch_0        -0
    RHS                   G_A.max_dispatch_1        -0  G_A.max_dispatch_2        -0
    RHS                   G_A.max_dispatch_3        -0  G_A.max_dispatch_4        -0
    RHS                   G_A.max_dispatch_5        -0  G_A.max_dispatch_6        -0
    RHS                   G_A.max_dispatch_7        -0  G_A.max_dispatch_8        -0
    RHS                   G_A.max_dispatch_9        -0  G_A.max_dispatch_10       -0
    RHS                   G_A.max_dispatch_11       -0  G_A.max_dispatch_12       -0
    RHS                   G_A.max_dispatch_13       -0  G_A.max_dispatch_14       -0
    RHS                   G_A.max_dispatch_15       -0  G_A.max_dispatch_16       -0
    RHS                   G_A.max_dispatch_17       -0  G_A.max_dispatch_18       -0
    RHS                   G_A.max_dispatch_19       -0  G_A.max_dispatch_20       -0
    RHS                   G_A.max_dispatch_21       -0  G_A.max_dispatch_22       -0
    RHS                   G_A.max_dispatch_23       -0  G_A.max_dispatch_24       -0
    RHS                   G_A.max_dispatch_25       -0  G_A.max_dispatch_26       -0
    RHS                   G_A.max_dispatch_27       -0  G_A.max_dispatch_28       -0
    RHS                   G_A.max_dispatch_29       -0  G_A.max_dispatch_30       -0
    RHS                   G_A.max_dispatch_31       -0  G_A.max_dispatch_32       -0
    RHS                   G_A.max_dispatch_33       -0  G_A.max_dispatch_34       -0
    RHS                   G_A.max_dispatch_35       -0  G_A.max_dispatch_36       -0
    RHS                   G_A.max_dispatch_37       -0  G_A.max_dispatch_38       -0
    RHS                   G_A.max_dispatch_39       -0  G_A.max_dispatch_40       -0
    RHS                   G_A.max_dispatch_41       -0  G_A.max_dispatch_42       -0
    RHS                   G_A.max_dispatch_43       -0  G_A.max_dispatch_44       -0
    RHS                   G_A.max_dispatch_45       -0  G_A.max_dispatch_46       -0
    RHS                   G_A.max_dispatch_47       -0  G_A.max_dispatch_48       -0
    RHS                   G_A.max_dispatch_49       -0  G_A.max_dispatch_50       -0
    RHS                   G_A.max_dispatch_51       -0  G_A.max_dispatch_52       -0
    RHS                   G_A.max_dispatch_53       -0  G_A.max_dispatch_54       -0
    RHS                   G_A.max_dispatch_55       -0  G_A.max_dispatch_56       -0
    RHS                   G_A.max_dispatch_57       -0  G_A.max_dispatch_58       -0
    RHS                   G_A.max_dispatch_59       -0  G_A.max_dispatch_60       -0
    RHS                   G_A.max_dispatch_61       -0  G_A.max_dispatch_62       -0
    RHS                   G_A.max_dispatch_63       -0  G_A.max_dispatch_64       -0
    RHS                   G_A.max_dispatch_65       -0  G_A.max_dispatch_66       -0
    RHS                   G_A.max_dispatch_67       -0  G_A.max_dispatch_68       -0
    RHS                   G_A.max_dispatch_69       -0  G_A.max_dispatch_70       -0
    RHS                   G_A.max_dispatch_71       -0  G_A.max_dispatch_72       -0
    RHS                   G_A.max_dispatch_73       -0  G_A.max_dispatch_74       -0
    RHS                   G_A.max_dispatch_75       -0  G_A.max_dispatch_76       -0
    RHS                   G_A.max_dispatch_77       -0  G_A.max_dispatch_78       -0
    RHS                   G_A.max_dispatch_79       -0  G_A.max_dispatch_80       -0
    RHS                   G_A.max_dispatch_81       -0  G_A.max_dispatch_82       -0
    RHS                   G_A.max_dispatch_83       -0  G_A.max_dispatch_84       -0
    RHS                   G_A.max_dispatch_85       -0  G_A.max_dispatch_86       -0
    RHS                   G_A.max_dispatch_87       -0  G_A.max_dispatch_88       -0
    RHS                   G_A.max_dispatch_89       -0  G_A.max_dispatch_90       -0
    RHS                   G_A.max_dispatch_91       -0  G_A.max_dispatch_92       -0
    RHS                   G_A.max_dispatch_93       -0  G_A.max_dispatch_94       -0
    RHS                   G_A.max_dispatch_95       -0  G_A.max_dispatch_96       -0
    RHS                   G_A.max_dispatch_97       -0  G_A.max_dispatch_98       -0
    RHS                   G_A.max_dispatch_99       -0  G_A.max_dispatch_100      -0
    RHS                   G_A.max_dispatch_101      -0  G_A.max_dispatch_102      -0
    RHS                   G_A.max_dispatch_103      -0  G_A.max_dispatch_104      -0
    RHS                   G_A.max_dispatch_105      -0  G_A.max_dispatch_106      -0
    RHS                   G_A.max_dispatch_107      -0  G_A.max_dispatch_108      -0
    RHS                   G_A.max_dispatch_109      -0  G_A.max_dispatch_110      -0
    RHS                   G_A.max_dispatch_111      -0  G_A.max_dispatch_112      -0
    RHS                   G_A.max_dispatch_113      -0  G_A.max_dispatch_114      -0
    RHS                   G_A.max_dispatch_115      -0  G_A.max_dispatch_116      -0
    RHS                   G_A.max_dispatch_117      -0  G_A.max_dispatch_118      -0
    RHS                   G_A.max_dispatch_119      -0  G_A.max_dispatch_120      -0
    RHS                   G_A.max_dispatch_121      -0  G_A.max_dispatch_122      -0
    RHS                   G_A.max_dispatch_123      -0  G_A.max_dispatch_124      -0
    RHS                   G_A.max_dispatch_125      -0  G_A.max_dispatch_126      -0
    RHS                   G_A.max_dispatch_127      -0  G_A.max_dispatch_128      -0
    RHS                   G_A.max_dispatch_129      -0  G_A.max_dispatch_130      -0
    RHS                   G_A.max_dispatch_131      -0  G_A.max_dispatch_132      -0
    RHS                   G_A.max_dispatch_133      -0  G_A.max_dispatch_134      -0
    RHS                   G_A.max_dispatch_135      -0  G_A.max_dispatch_136      -0
    RHS                   G_A.max_dispatch_137      -0  G_A.max_dispatch_138      -0
    RHS                   G_A.max_dispatch_139      -0  G_A.max_dispatch_140      -0
    RHS                   G_A.max_dispatch_141      -0  G_A.max_dispatch_142      -0
    RHS                   G_A.max_dispatch_143      -0  G_A.max_dispatch_144      -0
    RHS                   G_A.max_dispatch_145      -0  G_A.max_dispatch_146      -0
    RHS                   G_A.max_dispatch_147      -0  G_A.max_dispatch_148      -0
    RHS                   G_A.max_dispatch_149      -0  G_A.max_dispatch_150      -0
    RHS                   G_A.max_dispatch_151      -0  G_A.max_dispatch_152      -0
    RHS                   G_A.max_dispatch_153      -0  G_A.max_dispatch_154      -0
    RHS                   G_A.max_dispatch_155      -0  G_A.max_dispatch_156      -0
    RHS                   G_A.max_dispatch_157      -0  G_A.max_dispatch_158      -0
    RHS                   G_A.max_dispatch_159      -0  G_A.max_dispatch_160      -0
    RHS                   G_A.max_dispatch_161      -0  G_A.max_dispatch_162      -0
    RHS                   G_A.max_dispatch_163      -0  G_A.max_dispatch_164      -0
    RHS                   G_A.max_dispatch_165      -0  G_A.max_dispatch_166      -0
    RHS                   G_A.max_dispatch_167      -0  G_A.min_production    -1e+10
    RHS                   G_A.max_production     1e+10  AB.p0_upper_0             -0
    RHS                   AB.p0_upper_1             -0  AB.p0_upper_2             -0
    RHS                   AB.p0_upper_3             -0  AB.p0_upper_4             -0
    RHS                   AB.p0_upper_5             -0  AB.p0_upper_6             -0
    RHS                   AB.p0_upper_7             -0  AB.p0_upper_8             -0
    RHS                   AB.p0_upper_9             -0  AB.p0_upper_10            -0
    RHS                   AB.p0_upper_11            -0  AB.p0_upper_12            -0
    RHS                   AB.p0_upper_13            -0  AB.p0_upper_14            -0
    RHS                   AB.p0_upper_15            -0  AB.p0_upper_16            -0
    RHS                   AB.p0_upper_17            -0  AB.p0_upper_18            -0
    RHS                   AB.p0_upper_19            -0  AB.p0_upper_20            -0
    RHS                   AB.p0_upper_21            -0  AB.p0_upper_22            -0
    RHS                   AB.p0_upper_23            -0  AB.p0_upper_24            -0
    RHS                   AB.p0_upper_25            -0  AB.p0_upper_26            -0
    RHS                   AB.p0_upper_27            -0  AB.p0_upper_28            -0
    RHS                   AB.p0_upper_29            -0  AB.p0_upper_30            -0
    RHS                   AB.p0_upper_31            -0  AB.p0_upper_32            -0
    RHS                   AB.p0_upper_33            -0  AB.p0_upper_34            -0
    RHS                   AB.p0_upper_35            -0  AB.p0_upper_36            -0
    RHS                   AB.p0_upper_37            -0  AB.p0_upper_38            -0
    RHS                   AB.p0_upper_39            -0  AB.p0_upper_40            -0
    RHS                   AB.p0_upper_41            -0  AB.p0_upper_42            -0
    RHS                   AB.p0_upper_43            -0  AB.p0_upper_44            -0
    RHS                   AB.p0_upper_45            -0  AB.p0_upper_46            -0
    RHS                   AB.p0_upper_47            -0  AB.p0_upper_48            -0
    RHS                   AB.p0_upper_49            -0  AB.p0_upper_50            -0
    RHS                   AB.p0_upper_51            -0  AB.p0_upper_52            -0
    RHS                   AB.p0_upper_53            -0  AB.p0_upper_54            -0
    RHS                   AB.p0_upper_55            -0  AB.p0_upper_56            -0
    RHS                   AB.p0_upper_57            -0  AB.p0_upper_58            -0
    RHS                   AB.p0_upper_59            -0  AB.p0_upper_60            -0
    RHS                   AB.p0_upper_61            -0  AB.p0_upper_62            -0
    RHS                   AB.p0_upper_63            -0  AB.p0_upper_64            -0
    RHS                   AB.p0_upper_65            -0  AB.p0_upper_66            -0
    RHS                   AB.p0_upper_67            -0  AB.p0_upper_68            -0
    RHS                   AB.p0_upper_69            -0  AB.p0_upper_70            -0
    RHS                   AB.p0_upper_71            -0  AB.p0_upper_72            -0
    RHS                   AB.p0_upper_73            -0  AB.p0_upper_74            -0
    RHS                   AB.p0_upper_75            -0  AB.p0_upper_76            -0
    RHS                   AB.p0_upper_77            -0  AB.p0_upper_78            -0
    RHS                   AB.p0_upper_79            -0  AB.p0_upper_80            -0
    RHS                   AB.p0_upper_81            -0  AB.p0_upper_82            -0
    RHS                   AB.p0_upper_83            -0  AB.p0_upper_84            -0
    RHS                   AB.p0_upper_85            -0  AB.p0_upper_86            -0
    RHS                   AB.p0_upper_87            -0  AB.p0_upper_88            -0
    RHS                   AB.p0_upper_89            -0  AB.p0_upper_90            -0
    RHS                   AB.p0_upper_91            -0  AB.p0_upper_92            -0
    RHS                   AB.p0_upper_93            -0  AB.p0_upper_94            -0
    RHS                   AB.p0_upper_95            -0  AB.p0_upper_96            -0
    RHS                   AB.p0_upper_97            -0  AB.p0_upper_98            -0
    RHS                   AB.p0_upper_99            -0  AB.p0_upper_100           -0
    RHS                   AB.p0_upper_101           -0  AB.p0_upper_102           -0
    RHS                   AB.p0_upper_103           -0  AB.p0_upper_104           -0
    RHS                   AB.p0_upper_105           -0  AB.p0_upper_106           -0
    RHS                   AB.p0_upper_107           -0  AB.p0_upper_108           -0
    RHS                   AB.p0_upper_109           -0  AB.p0_upper_110           -0
    RHS                   AB.p0_upper_111           -0  AB.p0_upper_112           -0
    RHS                   AB.p0_upper_113           -0  AB.p0_upper_114           -0
    RHS                   AB.p0_upper_115           -0  AB.p0_upper_116           -0
    RHS                   AB.p0_upper_117           -0  AB.p0_upper_118           -0
    RHS                   AB.p0_upper_119           -0  AB.p0_upper_120           -0
    RHS                   AB.p0_upper_121           -0  AB.p0_upper_122           -0
    RHS                   AB.p0_upper_123           -0  AB.p0_upper_124           -0
    RHS                   AB.p0_upper_125           -0  AB.p0_upper_126           -0
    RHS                   AB.p0_upper_127           -0  AB.p0_upper_128           -0
    RHS                   AB.p0_upper_129           -0  AB.p0_upper_130           -0
    RHS                   AB.p0_upper_131           -0  AB.p0_upper_132           -0
    RHS                   AB.p0_upper_133           -0  AB.p0_upper_134           -0
    RHS                   AB.p0_upper_135           -0  AB.p0_upper_136           -0
    RHS                   AB.p0_upper_137           -0  AB.p0_upper_138           -0
    RHS                   AB.p0_upper_139           -0  AB.p0_upper_140           -0
    RHS                   AB.p0_upper_141           -0  AB.p0_upper_142           -0
    RHS                   AB.p0_upper_143           -0  AB.p0_upper_144           -0
    RHS                   AB.p0_upper_145           -0  AB.p0_upper_146           -0
    RHS                   AB.p0_upper_147           -0  AB.p0_upper_148           -0
    RHS                   AB.p0_upper_149           -0  AB.p0_upper_150           -0
    RHS                   AB.p0_upper_151           -0  AB.p0_upper_152           -0
    RHS                   AB.p0_upper_153           -0  AB.p0_upper_154           -0
    RHS                   AB.p0_upper_155           -0  AB.p0_upper_156           -0
    RHS                   AB.p0_upper_157           -0  AB.p0_upper_158           -0
    RHS                   AB.p0_upper_159           -0  AB.p0_upper_160           -0
    RHS                   AB.p0_upper_161           -0  AB.p0_upper_162           -0
    RHS                   AB.p0_upper_163           -0  AB.p0_upper_164           -0
    RHS                   AB.p0_upper_165           -0  AB.p0_upper_166           -0
    RHS                   AB.p0_upper_167           -0  AB.p0_lower_0             -0
    RHS                   AB.p0_lower_1             -0  AB.p0_lower_2             -0
    RHS                   AB.p0_lower_3             -0  AB.p0_lower_4             -0
    RHS                   AB.p0_lower_5             -0  AB.p0_lower_6             -0
    RHS                   AB.p0_lower_7             -0  AB.p0_lower_8             -0
    RHS                   AB.p0_lower_9             -0  AB.p0_lower_10            -0
    RHS                   AB.p0_lower_11            -0  AB.p0_lower_12            -0
    RHS                   AB.p0_lower_13            -0  AB.p0_lower_14            -0
    RHS                   AB.p0_lower_15            -0  AB.p0_lower_16            -0
    RHS                   AB.p0_lower_17            -0  AB.p0_lower_18            -0
    RHS                   AB.p0_lower_19            -0  AB.p0_lower_20            -0
    RHS                   AB.p0_lower_21            -0  AB.p0_lower_22            -0
    RHS                   AB.p0_lower_23            -0  AB.p0_lower_24            -0
    RHS                   AB.p0_lower_25            -0  AB.p0_lower_26            -0
    RHS                   AB.p0_lower_27            -0  AB.p0_lower_28            -0
    RHS                   AB.p0_lower_29            -0  AB.p0_lower_30            -0
    RHS                   AB.p0_lower_31            -0  AB.p0_lower_32            -0
    RHS                   AB.p0_lower_33            -0  AB.p0_lower_34            -0
    RHS                   AB.p0_lower_35            -0  AB.p0_lower_36            -0
    RHS                   AB.p0_lower_37            -0  AB.p0_lower_38            -0
    RHS                   AB.p0_lower_39            -0  AB.p0_lower_40            -0
    RHS                   AB.p0_lower_41            -0  AB.p0_lower_42            -0
    RHS                   AB.p0_lower_43            -0  AB.p0_lower_44            -0
    RHS                   AB.p0_lower_45            -0  AB.p0_lower_46            -0
    RHS                   AB.p0_lower_47            -0  AB.p0_lower_48            -0
    RHS                   AB.p0_lower_49            -0  AB.p0_lower_50            -0
    RHS                   AB.p0_lower_51            -0  AB.p0_lower_52            -0
    RHS                   AB.p0_lower_53            -0  AB.p0_lower_54            -0
    RHS                   AB.p0_lower_55            -0  AB.p0_lower_56            -0
    RHS                   AB.p0_lower_57            -0  AB.p0_lower_58            -0
    RHS                   AB.p0_lower_59            -0  AB.p0_lower_60            -0
    RHS                   AB.p0_lower_61            -0  AB.p0_lower_62            -0
    RHS                   AB.p0_lower_63            -0  AB.p0_lower_64            -0
    RHS                   AB.p0_lower_65            -0  AB.p0_lower_66            -0
    RHS                   AB.p0_lower_67            -0  AB.p0_lower_68            -0
    RHS                   AB.p0_lower_69            -0  AB.p0_lower_70            -0
    RHS                   AB.p0_lower_71            -0  AB.p0_lower_72            -0
    RHS                   AB.p0_lower_73            -0  AB.p0_lower_74            -0
    RHS                   AB.p0_lower_75            -0  AB.p0_lower_76            -0
    RHS                   AB.p0_lower_77            -0  AB.p0_lower_78            -0
    RHS                   AB.p0_lower_79            -0  AB.p0_lower_80            -0
    RHS                   AB.p0_lower_81            -0  AB.p0_lower_82            -0
    RHS                   AB.p0_lower_83            -0  AB.p0_lower_84            -0
    RHS                   AB.p0_lower_85            -0  AB.p0_lower_86            -0
    RHS                   AB.p0_lower_87            -0  AB.p0_lower_88            -0
    RHS                   AB.p0_lower_89            -0  AB.p0_lower_90            -0
    RHS                   AB.p0_lower_91            -0  AB.p0_lower_92            -0
    RHS                   AB.p0_lower_93            -0  AB.p0_lower_94            -0
    RHS                   AB.p0_lower_95            -0  AB.p0_lower_96            -0
    RHS                   AB.p0_lower_97            -0  AB.p0_lower_98            -0
    RHS                   AB.p0_lower_99            -0  AB.p0_lower_100           -0
    RHS                   AB.p0_lower_101           -0  AB.p0_lower_102           -0
    RHS                   AB.p0_lower_103           -0  AB.p0_lower_104           -0
    RHS                   AB.p0_lower_105           -0  AB.p0_lower_106           -0
    RHS                   AB.p0_lower_107           -0  AB.p0_lower_108           -0
    RHS                   AB.p0_lower_109           -0  AB.p0_lower_110           -0
    RHS                   AB.p0_lower_111           -0  AB.p0_lower_112           -0
    RHS                   AB.p0_lower_113           -0  AB.p0_lower_114           -0
    RHS                   AB.p0_lower_115           -0  AB.p0_lower_116           -0
    RHS                   AB.p0_lower_117           -0  AB.p0_lower_118           -0
    RHS                   AB.p0_lower_119           -0  AB.p0_lower_120           -0
    RHS                   AB.p0_lower_121           -0  AB.p0_lower_122           -0
    RHS                   AB.p0_lower_123           -0  AB.p0_lower_124           -0
    RHS                   AB.p0_lower_125           -0  AB.p0_lower_126           -0
    RHS                   AB.p0_lower_127           -0  AB.p0_lower_128           -0
    RHS                   AB.p0_lower_129           -0  AB.p0_lower_130           -0
    RHS                   AB.p0_lower_131           -0  AB.p0_lower_132           -0
    RHS                   AB.p0_lower_133           -0  AB.p0_lower_134           -0
    RHS                   AB.p0_lower_135           -0  AB.p0_lower_136           -0
    RHS                   AB.p0_lower_137           -0  AB.p0_lower_138           -0
    RHS                   AB.p0_lower_139           -0  AB.p0_lower_140           -0
    RHS                   AB.p0_lower_141           -0  AB.p0_lower_142           -0
    RHS                   AB.p0_lower_143           -0  AB.p0_lower_144           -0
    RHS                   AB.p0_lower_145           -0  AB.p0_lower_146           -0
    RHS                   AB.p0_lower_147           -0  AB.p0_lower_148           -0
    RHS                   AB.p0_lower_149           -0  AB.p0_lower_150           -0
    RHS                   AB.p0_lower_151           -0  AB.p0_lower_152           -0
    RHS                   AB.p0_lower_153           -0  AB.p0_lower_154           -0
    RHS                   AB.p0_lower_155           -0  AB.p0_lower_156           -0
    RHS                   AB.p0_lower_157           -0  AB.p0_lower_158           -0
    RHS                   AB.p0_lower_159           -0  AB.p0_lower_160           -0
    RHS                   AB.p0_lower_161           -0  AB.p0_lower_162           -0
    RHS                   AB.p0_lower_163           -0  AB.p0_lower_164           -0
    RHS                   AB.p0_lower_165           -0  AB.p0_lower_166           -0
    RHS                   AB.p0_lower_167           -0  BC.p0_upper_0             -0
    RHS                   BC.p0_upper_1             -0  BC.p0_upper_2             -0
    RHS                   BC.p0_upper_3             -0  BC.p0_upper_4             -0
    RHS                   BC.p0_upper_5             -0  BC.p0_upper_6             -0
    RHS                   BC.p0_upper_7             -0  BC.p0_upper_8             -0
    RHS                   BC.p0_upper_9             -0  BC.p0_upper_10            -0
    RHS                   BC.p0_upper_11            -0  BC.p0_upper_12            -0
    RHS                   BC.p0_upper_13            -0  BC.p0_upper_14            -0
    RHS                   BC.p0_upper_15            -0  BC.p0_upper_16            -0
    RHS                   BC.p0_upper_17            -0  BC.p0_upper_18            -0
    RHS                   BC.p0_upper_19            -0  BC.p0_upper_20            -0
    RHS                   BC.p0_upper_21            -0  BC.p0_upper_22            -0
    RHS                   BC.p0_upper_23            -0  BC.p0_upper_24            -0
    RHS                   BC.p0_upper_25            -0  BC.p0_upper_26            -0
    RHS                   BC.p0_upper_27            -0  BC.p0_upper_28            -0
    RHS                   BC.p0_upper_29            -0  BC.p0_upper_30            -0
    RHS                   BC.p0_upper_31            -0  BC.p0_upper_32            -0
    RHS                   BC.p0_upper_33            -0  BC.p0_upper_34            -0
    RHS                   BC.p0_upper_35            -0  BC.p0_upper_36            -0
    RHS                   BC.p0_upper_37            -0  BC.p0_upper_38            -0
    RHS                   BC.p0_upper_39            -0  BC.p0_upper_40            -0
    RHS                   BC.p0_upper_41            -0  BC.p0_upper_42            -0
    RHS                   BC.p0_upper_43            -0  BC.p0_upper_44            -0
    RHS                   BC.p0_upper_45            -0  BC.p0_upper_46            -0
    RHS                   BC.p0_upper_47            -0  BC.p0_upper_48            -0
    RHS                   BC.p0_upper_49            -0  BC.p0_upper_50            -0
    RHS                   BC.p0_upper_51            -0  BC.p0_upper_52            -0
    RHS                   BC.p0_upper_53            -0  BC.p0_upper_54            -0
    RHS                   BC.p0_upper_55            -0  BC.p0_upper_56            -0
    RHS                   BC.p0_upper_57            -0  BC.p0_upper_58            -0
    RHS                   BC.p0_upper_59            -0  BC.p0_upper_60            -0
    RHS                   BC.p0_upper_61            -0  BC.p0_upper_62            -0
    RHS                   BC.p0_upper_63            -0  BC.p0_upper_64            -0
    RHS                   BC.p0_upper_65            -0  BC.p0_upper_66            -0
    RHS                   BC.p0_upper_67            -0  BC.p0_upper_68            -0
    RHS                   BC.p0_upper_69            -0  BC.p0_upper_70            -0
    RHS                   BC.p0_upper_71            -0  BC.p0_upper_72            -0
    RHS                   BC.p0_upper_73            -0  BC.p0_upper_74            -0
    RHS                   BC.p0_upper_75            -0  BC.p0_upper_76            -0
    RHS                   BC.p0_upper_77            -0  BC.p0_upper_78            -0
    RHS                   BC.p0_upper_79            -0  BC.p0_upper_80            -0
    RHS                   BC.p0_upper_81            -0  BC.p0_upper_82            -0
    RHS                   BC.p0_upper_83            -0  BC.p0_upper_84            -0
    RHS                   BC.p0_upper_85            -0  BC.p0_upper_86            -0
    RHS                   BC.p0_upper_87            -0  BC.p0_upper_88            -0
    RHS                   BC.p0_upper_89            -0  BC.p0_upper_90            -0
    RHS                   BC.p0_upper_91            -0  BC.p0_upper_92            -0
    RHS                   BC.p0_upper_93            -0  BC.p0_upper_94            -0
    RHS                   BC.p0_upper_95            -0  BC.p0_upper_96            -0
    RHS                   BC.p0_upper_97            -0  BC.p0_upper_98            -0
    RHS                   BC.p0_upper_99            -0  BC.p0_upper_100           -0
    RHS                   BC.p0_upper_101           -0  BC.p0_upper_102           -0
    RHS                   BC.p0_upper_103           -0  BC.p0_upper_104           -0
    RHS                   BC.p0_upper_105           -0  BC.p0_upper_106           -0
    RHS                   BC.p0_upper_107           -0  BC.p0_upper_108           -0
    RHS                   BC.p0_upper_109           -0  BC.p0_upper_110           -0
    RHS                   BC.p0_upper_111           -0  BC.p0_upper_112           -0
    RHS                   BC.p0_upper_113           -0  BC.p0_upper_114           -0
    RHS                   BC.p0_upper_115           -0  BC.p0_upper_116           -0
    RHS                   BC.p0_upper_117           -0  BC.p0_upper_118           -0
    RHS                   BC.p0_upper_119           -0  BC.p0_upper_120           -0
    RHS                   BC.p0_upper_121           -0  BC.p0_upper_122           -0
    RHS                   BC.p0_upper_123           -0  BC.p0_upper_124           -0
    RHS                   BC.p0_upper_125           -0  BC.p0_upper_126           -0
    RHS                   BC.p0_upper_127           -0  BC.p0_upper_128           -0
    RHS                   BC.p0_upper_129           -0  BC.p0_upper_130           -0
    RHS                   BC.p0_upper_131           -0  BC.p0_upper_132           -0
    RHS                   BC.p0_upper_133           -0  BC.p0_upper_134           -0
    RHS                   BC.p0_upper_135           -0  BC.p0_upper_136           -0
    RHS                   BC.p0_upper_137           -0  BC.p0_upper_138           -0
    RHS                   BC.p0_upper_139           -0  BC.p0_upper_140           -0
    RHS                   BC.p0_upper_141           -0  BC.p0_upper_142           -0
    RHS                   BC.p0_upper_143           -0  BC.p0_upper_144           -0
    RHS                   BC.p0_upper_145           -0  BC.p0_upper_146           -0
    RHS                   BC.p0_upper_147           -0  BC.p0_upper_148           -0
    RHS                   BC.p0_upper_149           -0  BC.p0_upper_150           -0
    RHS                   BC.p0_upper_151           -0  BC.p0_upper_152           -0
    RHS                   BC.p0_upper_153           -0  BC.p0_upper_154           -0
    RHS                   BC.p0_upper_155           -0  BC.p0_upper_156           -0
    RHS                   BC.p0_upper_157           -0  BC.p0_upper_158           -0
    RHS                   BC.p0_upper_159           -0  BC.p0_upper_160           -0
    RHS                   BC.p0_upper_161           -0  BC.p0_upper_162           -0
    RHS                   BC.p0_upper_163           -0  BC.p0_upper_164           -0
    RHS                   BC.p0_upper_165           -0  BC.p0_upper_166           -0
    RHS                   BC.p0_upper_167           -0  BC.p0_lower_0             -0
    RHS                   BC.p0_lower_1             -0  BC.p0_lower_2             -0
    RHS                   BC.p0_lower_3             -0  BC.p0_lower_4             -0
    RHS                   BC.p0_lower_5             -0  BC.p0_lower_6             -0
    RHS                   BC.p0_lower_7             -0  BC.p0_lower_8             -0
    RHS                   BC.p0_lower_9             -0  BC.p0_lower_10            -0
    RHS                   BC.p0_lower_11            -0  BC.p0_lower_12            -0
    RHS                   BC.p0_lower_13            -0  BC.p0_lower_14            -0
    RHS                   BC.p0_lower_15            -0  BC.p0_lower_16            -0
    RHS                   BC.p0_lower_17            -0  BC.p0_lower_18            -0
    RHS                   BC.p0_lower_19            -0  BC.p0_lower_20            -0
    RHS                   BC.p0_lower_21            -0  BC.p0_lower_22            -0
    RHS                   BC.p0_lower_23            -0  BC.p0_lower_24            -0
    RHS                   BC.p0_lower_25            -0  BC.p0_lower_26            -0
    RHS                   BC.p0_lower_27            -0  BC.p0_lower_28            -0
    RHS                   BC.p0_lower_29            -0  BC.p0_lower_30            -0
    RHS                   BC.p0_lower_31            -0  BC.p0_lower_32            -0
    RHS                   BC.p0_lower_33            -0  BC.p0_lower_34            -0
    RHS                   BC.p0_lower_35            -0  BC.p0_lower_36            -0
    RHS                   BC.p0_lower_37            -0  BC.p0_lower_38            -0
    RHS                   BC.p0_lower_39            -0  BC.p0_lower_40            -0
    RHS                   BC.p0_lower_41            -0  BC.p0_lower_42            -0
    RHS                   BC.p0_lower_43            -0  BC.p0_lower_44            -0
    RHS                   BC.p0_lower_45            -0  BC.p0_lower_46            -0
    RHS                   BC.p0_lower_47            -0  BC.p0_lower_48            -0
    RHS                   BC.p0_lower_49            -0  BC.p0_lower_50            -0
    RHS                   BC.p0_lower_51            -0  BC.p0_lower_52            -0
    RHS                   BC.p0_lower_53            -0  BC.p0_lower_54            -0
    RHS                   BC.p0_lower_55            -0  BC.p0_lower_56            -0
    RHS                   BC.p0_lower_57            -0  BC.p0_lower_58            -0
    RHS                   BC.p0_lower_59            -0  BC.p0_lower_60            -0
    RHS                   BC.p0_lower_61            -0  BC.p0_lower_62            -0
    RHS                   BC.p0_lower_63            -0  BC.p0_lower_64            -0
    RHS                   BC.p0_lower_65            -0  BC.p0_lower_66            -0
    RHS                   BC.p0_lower_67            -0  BC.p0_lower_68            -0
    RHS                   BC.p0_lower_69            -0  BC.p0_lower_70            -0
    RHS                   BC.p0_lower_71            -0  BC.p0_lower_72            -0
    RHS                   BC.p0_lower_73            -0  BC.p0_lower_74            -0
    RHS                   BC.p0_lower_75            -0  BC.p0_lower_76            -0
    RHS                   BC.p0_lower_77            -0  BC.p0_lower_78            -0
    RHS                   BC.p0_lower_79            -0  BC.p0_lower_80            -0
    RHS                   BC.p0_lower_81            -0  BC.p0_lower_82            -0
    RHS                   BC.p0_lower_83            -0  BC.p0_lower_84            -0
    RHS                   BC.p0_lower_85            -0  BC.p0_lower_86            -0
    RHS                   BC.p0_lower_87            -0  BC.p0_lower_88            -0
    RHS                   BC.p0_lower_89            -0  BC.p0_lower_90            -0
    RHS                   BC.p0_lower_91            -0  BC.p0_lower_92            -0
    RHS                   BC.p0_lower_93            -0  BC.p0_lower_94            -0
    RHS                   BC.p0_lower_95            -0  BC.p0_lower_96            -0
    RHS                   BC.p0_lower_97            -0  BC.p0_lower_98            -0
    RHS                   BC.p0_lower_99            -0  BC.p0_lower_100           -0
    RHS                   BC.p0_lower_101           -0  BC.p0_lower_102           -0
    RHS                   BC.p0_lower_103           -0  BC.p0_lower_104           -0
    RHS                   BC.p0_lower_105           -0  BC.p0_lower_106           -0
    RHS                   BC.p0_lower_107           -0  BC.p0_lower_108           -0
    RHS                   BC.p0_lower_109           -0  BC.p0_lower_110           -0
    RHS                   BC.p0_lower_111           -0  BC.p0_lower_112           -0
    RHS                   BC.p0_lower_113           -0  BC.p0_lower_114           -0
    RHS                   BC.p0_lower_115           -0  BC.p0_lower_116           -0
    RHS                   BC.p0_lower_117           -0  BC.p0_lower_118           -0
    RHS                   BC.p0_lower_119           -0  BC.p0_lower_120           -0
    RHS                   BC.p0_lower_121           -0  BC.p0_lower_122           -0
    RHS                   BC.p0_lower_123           -0  BC.p0_lower_124           -0
    RHS                   BC.p0_lower_125           -0  BC.p0_lower_126           -0
    RHS                   BC.p0_lower_127           -0  BC.p0_lower_128           -0
    RHS                   BC.p0_lower_129           -0  BC.p0_lower_130           -0
    RHS                   BC.p0_lower_131           -0  BC.p0_lower_132           -0
    RHS                   BC.p0_lower_133           -0  BC.p0_lower_134           -0
    RHS                   BC.p0_lower_135           -0  BC.p0_lower_136           -0
    RHS                   BC.p0_lower_137           -0  BC.p0_lower_138           -0
    RHS                   BC.p0_lower_139           -0  BC.p0_lower_140           -0
    RHS                   BC.p0_lower_141           -0  BC.p0_lower_142           -0
    RHS                   BC.p0_lower_143           -0  BC.p0_lower_144           -0
    RHS                   BC.p0_lower_145           -0  BC.p0_lower_146           -0
    RHS                   BC.p0_lower_147           -0  BC.p0_lower_148           -0
    RHS                   BC.p0_lower_149           -0  BC.p0_lower_150           -0
    RHS                   BC.p0_lower_151           -0  BC.p0_lower_152           -0
    RHS                   BC.p0_lower_153           -0  BC.p0_lower_154           -0
    RHS                   BC.p0_lower_155           -0  BC.p0_lower_156           -0
    RHS                   BC.p0_lower_157           -0  BC.p0_lower_158           -0
    RHS                   BC.p0_lower_159           -0  BC.p0_lower_160           -0
    RHS                   BC.p0_lower_161           -0  BC.p0_lower_162           -0
    RHS                   BC.p0_lower_163           -0  BC.p0_lower_164           -0
    RHS                   BC.p0_lower_165           -0  BC.p0_lower_166           -0
    RHS                   BC.p0_lower_167           -0  AC.p0_upper_0             -0
    RHS                   AC.p0_upper_1             -0  AC.p0_upper_2             -0
    RHS                   AC.p0_upper_3             -0  AC.p0_upper_4             -0
    RHS                   AC.p0_upper_5             -0  AC.p0_upper_6             -0
    RHS                   AC.p0_upper_7             -0  AC.p0_upper_8             -0
    RHS                   AC.p0_upper_9             -0  AC.p0_upper_10            -0
    RHS                   AC.p0_upper_11            -0  AC.p0_upper_12            -0
    RHS                   AC.p0_upper_13            -0  AC.p0_upper_14            -0
    RHS                   AC.p0_upper_15            -0  AC.p0_upper_16            -0
    RHS                   AC.p0_upper_17            -0  AC.p0_upper_18            -0
    RHS                   AC.p0_upper_19            -0  AC.p0_upper_20            -0
    RHS                   AC.p0_upper_21            -0  AC.p0_upper_22            -0
    RHS                   AC.p0_upper_23            -0  AC.p0_upper_24            -0
    RHS                   AC.p0_upper_25            -0  AC.p0_upper_26            -0
    RHS                   AC.p0_upper_27            -0  AC.p0_upper_28            -0
    RHS                   AC.p0_upper_29            -0  AC.p0_upper_30            -0
    RHS                   AC.p0_upper_31            -0  AC.p0_upper_32            -0
    RHS                   AC.p0_upper_33            -0  AC.p0_upper_34            -0
    RHS                   AC.p0_upper_35            -0  AC.p0_upper_36            -0
    RHS                   AC.p0_upper_37            -0  AC.p0_upper_38            -0
    RHS                   AC.p0_upper_39            -0  AC.p0_upper_40            -0
    RHS                   AC.p0_upper_41            -0  AC.p0_upper_42            -0
    RHS                   AC.p0_upper_43            -0  AC.p0_upper_44            -0
    RHS                   AC.p0_upper_45            -0  AC.p0_upper_46            -0
    RHS                   AC.p0_upper_47            -0  AC.p0_upper_48            -0
    RHS                   AC.p0_upper_49            -0  AC.p0_upper_50            -0
    RHS                   AC.p0_upper_51            -0  AC.p0_upper_52            -0
    RHS                   AC.p0_upper_53            -0  AC.p0_upper_54            -0
    RHS                   AC.p0_upper_55            -0  AC.p0_upper_56            -0
    RHS                   AC.p0_upper_57            -0  AC.p0_upper_58            -0
    RHS                   AC.p0_upper_59            -0  AC.p0_upper_60            -0
    RHS                   AC.p0_upper_61            -0  AC.p0_upper_62            -0
    RHS                   AC.p0_upper_63            -0  AC.p0_upper_64            -0
    RHS                   AC.p0_upper_65            -0  AC.p0_upper_66            -0
    RHS                   AC.p0_upper_67            -0  AC.p0_upper_68            -0
    RHS                   AC.p0_upper_69            -0  AC.p0_upper_70            -0
    RHS                   AC.p0_upper_71            -0  AC.p0_upper_72            -0
    RHS                   AC.p0_upper_73            -0  AC.p0_upper_74            -0
    RHS                   AC.p0_upper_75            -0  AC.p0_upper_76            -0
    RHS                   AC.p0_upper_77            -0  AC.p0_upper_78            -0
    RHS                   AC.p0_upper_79            -0  AC.p0_upper_80            -0
    RHS                   AC.p0_upper_81            -0  AC.p0_upper_82            -0
    RHS                   AC.p0_upper_83            -0  AC.p0_upper_84            -0
    RHS                   AC.p0_upper_85            -0  AC.p0_upper_86            -0
    RHS                   AC.p0_upper_87            -0  AC.p0_upper_88            -0
    RHS                   AC.p0_upper_89            -0  AC.p0_upper_90            -0
    RHS                   AC.p0_upper_91            -0  AC.p0_upper_92            -0
    RHS                   AC.p0_upper_93            -0  AC.p0_upper_94            -0
    RHS                   AC.p0_upper_95            -0  AC.p0_upper_96            -0
    RHS                   AC.p0_upper_97            -0  AC.p0_upper_98            -0
    RHS                   AC.p0_upper_99            -0  AC.p0_upper_100           -0
    RHS                   AC.p0_upper_101           -0  AC.p0_upper_102           -0
    RHS                   AC.p0_upper_103           -0  AC.p0_upper_104           -0
    RHS                   AC.p0_upper_105           -0  AC.p0_upper_106           -0
    RHS                   AC.p0_upper_107           -0  AC.p0_upper_108           -0
    RHS                   AC.p0_upper_109           -0  AC.p0_upper_110           -0
    RHS                   AC.p0_upper_111           -0  AC.p0_upper_112           -0
    RHS                   AC.p0_upper_113           -0  AC.p0_upper_114           -0
    RHS                   AC.p0_upper_115           -0  AC.p0_upper_116           -0
    RHS                   AC.p0_upper_117           -0  AC.p0_upper_118           -0
    RHS                   AC.p0_upper_119           -0  AC.p0_upper_120           -0
    RHS                   AC.p0_upper_121           -0  AC.p0_upper_122           -0
    RHS                   AC.p0_upper_123           -0  AC.p0_upper_124           -0
    RHS                   AC.p0_upper_125           -0  AC.p0_upper_126           -0
    RHS                   AC.p0_upper_127           -0  AC.p0_upper_128           -0
    RHS                   AC.p0_upper_129           -0  AC.p0_upper_130           -0
    RHS                   AC.p0_upper_131           -0  AC.p0_upper_132           -0
    RHS                   AC.p0_upper_133           -0  AC.p0_upper_134           -0
    RHS                   AC.p0_upper_135           -0  AC.p0_upper_136           -0
    RHS                   AC.p0_upper_137           -0  AC.p0_upper_138           -0
    RHS                   AC.p0_upper_139           -0  AC.p0_upper_140           -0
    RHS                   AC.p0_upper_141           -0  AC.p0_upper_142           -0
    RHS                   AC.p0_upper_143           -0  AC.p0_upper_144           -0
    RHS                   AC.p0_upper_145           -0  AC.p0_upper_146           -0
    RHS                   AC.p0_upper_147           -0  AC.p0_upper_148           -0
    RHS                   AC.p0_upper_149           -0  AC.p0_upper_150           -0
    RHS                   AC.p0_upper_151           -0  AC.p0_upper_152           -0
    RHS                   AC.p0_upper_153           -0  AC.p0_upper_154           -0
    RHS                   AC.p0_upper_155           -0  AC.p0_upper_156           -0
    RHS                   AC.p0_upper_157           -0  AC.p0_upper_158           -0
    RHS                   AC.p0_upper_159           -0  AC.p0_upper_160           -0
    RHS                   AC.p0_upper_161           -0  AC.p0_upper_162           -0
    RHS                   AC.p0_upper_163           -0  AC.p0_upper_164           -0
    RHS                   AC.p0_upper_165           -0  AC.p0_upper_166           -0
    RHS                   AC.p0_upper_167           -0  AC.p0_lower_0             -0
    RHS                   AC.p0_lower_1             -0  AC.p0_lower_2             -0
    RHS                   AC.p0_lower_3             -0  AC.p0_lower_4             -0
    RHS                   AC.p0_lower_5             -0  AC.p0_lower_6             -0
    RHS                   AC.p0_lower_7             -0  AC.p0_lower_8             -0
    RHS                   AC.p0_lower_9             -0  AC.p0_lower_10            -0
    RHS                   AC.p0_lower_11            -0  AC.p0_lower_12            -0
    RHS                   AC.p0_lower_13            -0  AC.p0_lower_14            -0
    RHS                   AC.p0_lower_15            -0  AC.p0_lower_16            -0
    RHS                   AC.p0_lower_17            -0  AC.p0_lower_18            -0
    RHS                   AC.p0_lower_19            -0  AC.p0_lower_20            -0
    RHS                   AC.p0_lower_21            -0  AC.p0_lower_22            -0
    RHS                   AC.p0_lower_23            -0  AC.p0_lower_24            -0
    RHS                   AC.p0_lower_25            -0  AC.p0_lower_26            -0
    RHS                   AC.p0_lower_27            -0  AC.p0_lower_28            -0
    RHS                   AC.p0_lower_29            -0  AC.p0_lower_30            -0
    RHS                   AC.p0_lower_31            -0  AC.p0_lower_32            -0
    RHS                   AC.p0_lower_33            -0  AC.p0_lower_34            -0
    RHS                   AC.p0_lower_35            -0  AC.p0_lower_36            -0
    RHS                   AC.p0_lower_37            -0  AC.p0_lower_38            -0
    RHS                   AC.p0_lower_39            -0  AC.p0_lower_40            -0
    RHS                   AC.p0_lower_41            -0  AC.p0_lower_42            -0
    RHS                   AC.p0_lower_43            -0  AC.p0_lower_44            -0
    RHS                   AC.p0_lower_45            -0  AC.p0_lower_46            -0
    RHS                   AC.p0_lower_47            -0  AC.p0_lower_48            -0
    RHS                   AC.p0_lower_49            -0  AC.p0_lower_50            -0
    RHS                   AC.p0_lower_51            -0  AC.p0_lower_52            -0
    RHS                   AC.p0_lower_53            -0  AC.p0_lower_54            -0
    RHS                   AC.p0_lower_55            -0  AC.p0_lower_56            -0
    RHS                   AC.p0_lower_57            -0  AC.p0_lower_58            -0
    RHS                   AC.p0_lower_59            -0  AC.p0_lower_60            -0
    RHS                   AC.p0_lower_61            -0  AC.p0_lower_62            -0
    RHS                   AC.p0_lower_63            -0  AC.p0_lower_64            -0
    RHS                   AC.p0_lower_65            -0  AC.p0_lower_66            -0
    RHS                   AC.p0_lower_67            -0  AC.p0_lower_68            -0
    RHS                   AC.p0_lower_69            -0  AC.p0_lower_70            -0
    RHS                   AC.p0_lower_71            -0  AC.p0_lower_72            -0
    RHS                   AC.p0_lower_73            -0  AC.p0_lower_74            -0
    RHS                   AC.p0_lower_75            -0  AC.p0_lower_76            -0
    RHS                   AC.p0_lower_77            -0  AC.p0_lower_78            -0
    RHS                   AC.p0_lower_79            -0  AC.p0_lower_80            -0
    RHS                   AC.p0_lower_81            -0  AC.p0_lower_82            -0
    RHS                   AC.p0_lower_83            -0  AC.p0_lower_84            -0
    RHS                   AC.p0_lower_85            -0  AC.p0_lower_86            -0
    RHS                   AC.p0_lower_87            -0  AC.p0_lower_88            -0
    RHS                   AC.p0_lower_89            -0  AC.p0_lower_90            -0
    RHS                   AC.p0_lower_91            -0  AC.p0_lower_92            -0
    RHS                   AC.p0_lower_93            -0  AC.p0_lower_94            -0
    RHS                   AC.p0_lower_95            -0  AC.p0_lower_96            -0
    RHS                   AC.p0_lower_97            -0  AC.p0_lower_98            -0
    RHS                   AC.p0_lower_99            -0  AC.p0_lower_100           -0
    RHS                   AC.p0_lower_101           -0  AC.p0_lower_102           -0
    RHS                   AC.p0_lower_103           -0  AC.p0_lower_104           -0
    RHS                   AC.p0_lower_105           -0  AC.p0_lower_106           -0
    RHS                   AC.p0_lower_107           -0  AC.p0_lower_108           -0
    RHS                   AC.p0_lower_109           -0  AC.p0_lower_110           -0
    RHS                   AC.p0_lower_111           -0  AC.p0_lower_112           -0
    RHS                   AC.p0_lower_113           -0  AC.p0_lower_114           -0
    RHS                   AC.p0_lower_115           -0  AC.p0_lower_116           -0
    RHS                   AC.p0_lower_117           -0  AC.p0_lower_118           -0
    RHS                   AC.p0_lower_119           -0  AC.p0_lower_120           -0
    RHS                   AC.p0_lower_121           -0  AC.p0_lower_122           -0
    RHS                   AC.p0_lower_123           -0  AC.p0_lower_124           -0
    RHS                   AC.p0_lower_125           -0  AC.p0_lower_126           -0
    RHS                   AC.p0_lower_127           -0  AC.p0_lower_128           -0
    RHS                   AC.p0_lower_129           -0  AC.p0_lower_130           -0
    RHS                   AC.p0_lower_131           -0  AC.p0_lower_132           -0
    RHS                   AC.p0_lower_133           -0  AC.p0_lower_134           -0
    RHS                   AC.p0_lower_135           -0  AC.p0_lower_136           -0
    RHS                   AC.p0_lower_137           -0  AC.p0_lower_138           -0
    RHS                   AC.p0_lower_139           -0  AC.p0_lower_140           -0
    RHS                   AC.p0_lower_141           -0  AC.p0_lower_142           -0
    RHS                   AC.p0_lower_143           -0  AC.p0_lower_144           -0
    RHS                   AC.p0_lower_145           -0  AC.p0_lower_146           -0
    RHS                   AC.p0_lower_147           -0  AC.p0_lower_148           -0
    RHS                   AC.p0_lower_149           -0  AC.p0_lower_150           -0
    RHS                   AC.p0_lower_151           -0  AC.p0_lower_152           -0
    RHS                   AC.p0_lower_153           -0  AC.p0_lower_154           -0
    RHS                   AC.p0_lower_155           -0  AC.p0_lower_156           -0
    RHS                   AC.p0_lower_157           -0  AC.p0_lower_158           -0
    RHS                   AC.p0_lower_159           -0  AC.p0_lower_160           -0
    RHS                   AC.p0_lower_161           -0  AC.p0_lower_162           -0
    RHS                   AC.p0_lower_163           -0  AC.p0_lower_164           -0
    RHS                   AC.p0_lower_165           -0  AC.p0_lower_166           -0
    RHS                   AC.p0_lower_167           -0
BOUNDS
 FR BOUND                 A.theta_s0_t0
 FR BOUND                 A.theta_s0_t1
 FR BOUND                 A.theta_s0_t2
 FR BOUND                 A.theta_s0_t3
 FR BOUND                 A.theta_s0_t4
 FR BOUND                 A.theta_s0_t5
 FR BOUND                 A.theta_s0_t6
 FR BOUND                 A.theta_s0_t7
 FR BOUND                 A.theta_s0_t8
 FR BOUND                 A.theta_s0_t9
 FR BOUND                 A.theta_s0_t10
 FR BOUND                 A.theta_s0_t11
 FR BOUND                 A.theta_s0_t12
 FR BOUND                 A.theta_s0_t13
 FR BOUND                 A.theta_s0_t14
 FR BOUND                 A.theta_s0_t15
 FR BOUND                 A.theta_s0_t16
 FR BOUND                 A.theta_s0_t17
 FR BOUND                 A.theta_s0_t18
 FR BOUND                 A.theta_s0_t19
 FR BOUND                 A.theta_s0_t20
 FR BOUND                 A.theta_s0_t21
 FR BOUND                 A.theta_s0_t22
 FR BOUND                 A.theta_s0_t23
 FR BOUND                 A.theta_s0_t24
 FR BOUND                 A.theta_s0_t25
 FR BOUND                 A.theta_s0_t26
 FR BOUND                 A.theta_s0_t27
 FR BOUND                 A.theta_s0_t28
 FR BOUND                 A.theta_s0_t29
 FR BOUND                 A.theta_s0_t30
 FR BOUND                 A.theta_s0_t31
 FR BOUND                 A.theta_s0_t32
 FR BOUND                 A.theta_s0_t33
 FR BOUND                 A.theta_s0_t34
 FR BOUND                 A.theta_s0_t35
 FR BOUND                 A.theta_s0_t36
 FR BOUND                 A.theta_s0_t37
 FR BOUND                 A.theta_s0_t38
 FR BOUND                 A.theta_s0_t39
 FR BOUND                 A.theta_s0_t40
 FR BOUND                 A.theta_s0_t41
 FR BOUND                 A.theta_s0_t42
 FR BOUND                 A.theta_s0_t43
 FR BOUND                 A.theta_s0_t44
 FR BOUND                 A.theta_s0_t45
 FR BOUND                 A.theta_s0_t46
 FR BOUND                 A.theta_s0_t47
 FR BOUND                 A.theta_s0_t48
 FR BOUND                 A.theta_s0_t49
 FR BOUND                 A.theta_s0_t50
 FR BOUND                 A.theta_s0_t51
 FR BOUND                 A.theta_s0_t52
 FR BOUND                 A.theta_s0_t53
 FR BOUND                 A.theta_s0_t54
 FR BOUND                 A.theta_s0_t55
 FR BOUND                 A.theta_s0_t56
 FR BOUND                 A.theta_s0_t57
 FR BOUND                 A.theta_s0_t58
 FR BOUND                 A.theta_s0_t59
 FR BOUND                 A.theta_s0_t60
 FR BOUND                 A.theta_s0_t61
 FR BOUND                 A.theta_s0_t62
 FR BOUND                 A.theta_s0_t63
 FR BOUND                 A.theta_s0_t64
 FR BOUND                 A.theta_s0_t65
 FR BOUND                 A.theta_s0_t66
 FR BOUND                 A.theta_s0_t67
 FR BOUND                 A.theta_s0_t68
 FR BOUND                 A.theta_s0_t69
 FR BOUND                 A.theta_s0_t70
 FR BOUND                 A.theta_s0_t71
 FR BOUND                 A.theta_s0_t72
 FR BOUND                 A.theta_s0_t73
 FR BOUND                 A.theta_s0_t74
 FR BOUND                 A.theta_s0_t75
 FR BOUND                 A.theta_s0_t76
 FR BOUND                 A.theta_s0_t77
 FR BOUND                 A.theta_s0_t78
 FR BOUND                 A.theta_s0_t79
 FR BOUND                 A.theta_s0_t80
 FR BOUND                 A.theta_s0_t81
 FR BOUND                 A.theta_s0_t82
 FR BOUND                 A.theta_s0_t83
 FR BOUND                 A.theta_s0_t84
 FR BOUND                 A.theta_s0_t85
 FR BOUND                 A.theta_s0_t86
 FR BOUND                 A.theta_s0_t87
 FR BOUND                 A.theta_s0_t88
 FR BOUND                 A.theta_s0_t89
 FR BOUND                 A.theta_s0_t90
 FR BOUND                 A.theta_s0_t91
 FR BOUND                 A.theta_s0_t92
 FR BOUND                 A.theta_s0_t93
 FR BOUND                 A.theta_s0_t94
 FR BOUND                 A.theta_s0_t95
 FR BOUND                 A.theta_s0_t96
 FR BOUND                 A.theta_s0_t97
 FR BOUND                 A.theta_s0_t98
 FR BOUND                 A.theta_s0_t99
 FR BOUND                 A.theta_s0_t100
 FR BOUND                 A.theta_s0_t101
 FR BOUND                 A.theta_s0_t102
 FR BOUND                 A.theta_s0_t103
 FR BOUND                 A.theta_s0_t104
 FR BOUND                 A.theta_s0_t105
 FR BOUND                 A.theta_s0_t106
 FR BOUND                 A.theta_s0_t107
 FR BOUND                 A.theta_s0_t108
 FR BOUND                 A.theta_s0_t109
 FR BOUND                 A.theta_s0_t110
 FR BOUND                 A.theta_s0_t111
 FR BOUND                 A.theta_s0_t112
 FR BOUND                 A.theta_s0_t113
 FR BOUND                 A.theta_s0_t114
 FR BOUND                 A.theta_s0_t115
 FR BOUND                 A.theta_s0_t116
 FR BOUND                 A.theta_s0_t117
 FR BOUND                 A.theta_s0_t118
 FR BOUND                 A.theta_s0_t119
 FR BOUND                 A.theta_s0_t120
 FR BOUND                 A.theta_s0_t121
 FR BOUND                 A.theta_s0_t122
 FR BOUND                 A.theta_s0_t123
 FR BOUND                 A.theta_s0_t124
 FR BOUND                 A.theta_s0_t125
 FR BOUND                 A.theta_s0_t126
 FR BOUND                 A.theta_s0_t127
 FR BOUND                 A.theta_s0_t128
 FR BOUND                 A.theta_s0_t129
 FR BOUND                 A.theta_s0_t130
 FR BOUND                 A.theta_s0_t131
 FR BOUND                 A.theta_s0_t132
 FR BOUND                 A.theta_s0_t133
 FR BOUND                 A.theta_s0_t134
 FR BOUND                 A.theta_s0_t135
 FR BOUND                 A.theta_s0_t136
 FR BOUND                 A.theta_s0_t137
 FR BOUND                 A.theta_s0_t138
 FR BOUND                 A.theta_s0_t139
 FR BOUND                 A.theta_s0_t140
 FR BOUND                 A.theta_s0_t141
 FR BOUND                 A.theta_s0_t142
 FR BOUND                 A.theta_s0_t143
 FR BOUND                 A.theta_s0_t144
 FR BOUND                 A.theta_s0_t145
 FR BOUND                 A.theta_s0_t146
 FR BOUND                 A.theta_s0_t147
 FR BOUND                 A.theta_s0_t148
 FR BOUND                 A.theta_s0_t149
 FR BOUND                 A.theta_s0_t150
 FR BOUND                 A.theta_s0_t151
 FR BOUND                 A.theta_s0_t152
 FR BOUND                 A.theta_s0_t153
 FR BOUND                 A.theta_s0_t154
 FR BOUND                 A.theta_s0_t155
 FR BOUND                 A.theta_s0_t156
 FR BOUND                 A.theta_s0_t157
 FR BOUND                 A.theta_s0_t158
 FR BOUND                 A.theta_s0_t159
 FR BOUND                 A.theta_s0_t160
 FR BOUND                 A.theta_s0_t161
 FR BOUND                 A.theta_s0_t162
 FR BOUND                 A.theta_s0_t163
 FR BOUND                 A.theta_s0_t164
 FR BOUND                 A.theta_s0_t165
 FR BOUND                 A.theta_s0_t166
 FR BOUND                 A.theta_s0_t167
 FR BOUND                 B.theta_s0_t0
 FR BOUND                 B.theta_s0_t1
 FR BOUND                 B.theta_s0_t2
 FR BOUND                 B.theta_s0_t3
 FR BOUND                 B.theta_s0_t4
 FR BOUND                 B.theta_s0_t5
 FR BOUND                 B.theta_s0_t6
 FR BOUND                 B.theta_s0_t7
 FR BOUND                 B.theta_s0_t8
 FR BOUND                 B.theta_s0_t9
 FR BOUND                 B.theta_s0_t10
 FR BOUND                 B.theta_s0_t11
 FR BOUND                 B.theta_s0_t12
 FR BOUND                 B.theta_s0_t13
 FR BOUND                 B.theta_s0_t14
 FR BOUND                 B.theta_s0_t15
 FR BOUND                 B.theta_s0_t16
 FR BOUND                 B.theta_s0_t17
 FR BOUND                 B.theta_s0_t18
 FR BOUND                 B.theta_s0_t19
 FR BOUND                 B.theta_s0_t20
 FR BOUND                 B.theta_s0_t21
 FR BOUND                 B.theta_s0_t22
 FR BOUND                 B.theta_s0_t23
 FR BOUND                 B.theta_s0_t24
 FR BOUND                 B.theta_s0_t25
 FR BOUND                 B.theta_s0_t26
 FR BOUND                 B.theta_s0_t27
 FR BOUND                 B.theta_s0_t28
 FR BOUND                 B.theta_s0_t29
 FR BOUND                 B.theta_s0_t30
 FR BOUND                 B.theta_s0_t31
 FR BOUND                 B.theta_s0_t32
 FR BOUND                 B.theta_s0_t33
 FR BOUND                 B.theta_s0_t34
 FR BOUND                 B.theta_s0_t35
 FR BOUND                 B.theta_s0_t36
 FR BOUND                 B.theta_s0_t37
 FR BOUND                 B.theta_s0_t38
 FR BOUND                 B.theta_s0_t39
 FR BOUND                 B.theta_s0_t40
 FR BOUND                 B.theta_s0_t41
 FR BOUND                 B.theta_s0_t42
 FR BOUND                 B.theta_s0_t43
 FR BOUND                 B.theta_s0_t44
 FR BOUND                 B.theta_s0_t45
 FR BOUND                 B.theta_s0_t46
 FR BOUND                 B.theta_s0_t47
 FR BOUND                 B.theta_s0_t48
 FR BOUND                 B.theta_s0_t49
 FR BOUND                 B.theta_s0_t50
 FR BOUND                 B.theta_s0_t51
 FR BOUND                 B.theta_s0_t52
 FR BOUND                 B.theta_s0_t53
 FR BOUND                 B.theta_s0_t54
 FR BOUND                 B.theta_s0_t55
 FR BOUND                 B.theta_s0_t56
 FR BOUND                 B.theta_s0_t57
 FR BOUND                 B.theta_s0_t58
 FR BOUND                 B.theta_s0_t59
 FR BOUND                 B.theta_s0_t60
 FR BOUND                 B.theta_s0_t61
 FR BOUND                 B.theta_s0_t62
 FR BOUND                 B.theta_s0_t63
 FR BOUND                 B.theta_s0_t64
 FR BOUND                 B.theta_s0_t65
 FR BOUND                 B.theta_s0_t66
 FR BOUND                 B.theta_s0_t67
 FR BOUND                 B.theta_s0_t68
 FR BOUND                 B.theta_s0_t69
 FR BOUND                 B.theta_s0_t70
 FR BOUND                 B.theta_s0_t71
 FR BOUND                 B.theta_s0_t72
 FR BOUND                 B.theta_s0_t73
 FR BOUND                 B.theta_s0_t74
 FR BOUND                 B.theta_s0_t75
 FR BOUND                 B.theta_s0_t76
 FR BOUND                 B.theta_s0_t77
 FR BOUND                 B.theta_s0_t78
 FR BOUND                 B.theta_s0_t79
 FR BOUND                 B.theta_s0_t80
 FR BOUND                 B.theta_s0_t81
 FR BOUND                 B.theta_s0_t82
 FR BOUND                 B.theta_s0_t83
 FR BOUND                 B.theta_s0_t84
 FR BOUND                 B.theta_s0_t85
 FR BOUND                 B.theta_s0_t86
 FR BOUND                 B.theta_s0_t87
 FR BOUND                 B.theta_s0_t88
 FR BOUND                 B.theta_s0_t89
 FR BOUND                 B.theta_s0_t90
 FR BOUND                 B.theta_s0_t91
 FR BOUND                 B.theta_s0_t92
 FR BOUND                 B.theta_s0_t93
 FR BOUND                 B.theta_s0_t94
 FR BOUND                 B.theta_s0_t95
 FR BOUND                 B.theta_s0_t96
 FR BOUND                 B.theta_s0_t97
 FR BOUND                 B.theta_s0_t98
 FR BOUND                 B.theta_s0_t99
 FR BOUND                 B.theta_s0_t100
 FR BOUND                 B.theta_s0_t101
 FR BOUND                 B.theta_s0_t102
 FR BOUND                 B.theta_s0_t103
 FR BOUND                 B.theta_s0_t104
 FR BOUND                 B.theta_s0_t105
 FR BOUND                 B.theta_s0_t106
 FR BOUND                 B.theta_s0_t107
 FR BOUND                 B.theta_s0_t108
 FR BOUND                 B.theta_s0_t109
 FR BOUND                 B.theta_s0_t110
 FR BOUND                 B.theta_s0_t111
 FR BOUND                 B.theta_s0_t112
 FR BOUND                 B.theta_s0_t113
 FR BOUND                 B.theta_s0_t114
 FR BOUND                 B.theta_s0_t115
 FR BOUND                 B.theta_s0_t116
 FR BOUND                 B.theta_s0_t117
 FR BOUND                 B.theta_s0_t118
 FR BOUND                 B.theta_s0_t119
 FR BOUND                 B.theta_s0_t120
 FR BOUND                 B.theta_s0_t121
 FR BOUND                 B.theta_s0_t122
 FR BOUND                 B.theta_s0_t123
 FR BOUND                 B.theta_s0_t124
 FR BOUND                 B.theta_s0_t125
 FR BOUND                 B.theta_s0_t126
 FR BOUND                 B.theta_s0_t127
 FR BOUND                 B.theta_s0_t128
 FR BOUND                 B.theta_s0_t129
 FR BOUND                 B.theta_s0_t130
 FR BOUND                 B.theta_s0_t131
 FR BOUND                 B.theta_s0_t132
 FR BOUND                 B.theta_s0_t133
 FR BOUND                 B.theta_s0_t134
 FR BOUND                 B.theta_s0_t135
 FR BOUND                 B.theta_s0_t136
 FR BOUND                 B.theta_s0_t137
 FR BOUND                 B.theta_s0_t138
 FR BOUND                 B.theta_s0_t139
 FR BOUND                 B.theta_s0_t140
 FR BOUND                 B.theta_s0_t141
 FR BOUND                 B.theta_s0_t142
 FR BOUND                 B.theta_s0_t143
 FR BOUND                 B.theta_s0_t144
 FR BOUND                 B.theta_s0_t145
 FR BOUND                 B.theta_s0_t146
 FR BOUND                 B.theta_s0_t147
 FR BOUND                 B.theta_s0_t148
 FR BOUND                 B.theta_s0_t149
 FR BOUND                 B.theta_s0_t150
 FR BOUND                 B.theta_s0_t151
 FR BOUND                 B.theta_s0_t152
 FR BOUND                 B.theta_s0_t153
 FR BOUND                 B.theta_s0_t154
 FR BOUND                 B.theta_s0_t155
 FR BOUND                 B.theta_s0_t156
 FR BOUND                 B.theta_s0_t157
 FR BOUND                 B.theta_s0_t158
 FR BOUND                 B.theta_s0_t159
 FR BOUND                 B.theta_s0_t160
 FR BOUND                 B.theta_s0_t161
 FR BOUND                 B.theta_s0_t162
 FR BOUND                 B.theta_s0_t163
 FR BOUND                 B.theta_s0_t164
 FR BOUND                 B.theta_s0_t165
 FR BOUND                 B.theta_s0_t166
 FR BOUND                 B.theta_s0_t167
 FR BOUND                 C.theta_s0_t0
 FR BOUND                 C.theta_s0_t1
 FR BOUND                 C.theta_s0_t2
 FR BOUND                 C.theta_s0_t3
 FR BOUND                 C.theta_s0_t4
 FR BOUND                 C.theta_s0_t5
 FR BOUND                 C.theta_s0_t6
 FR BOUND                 C.theta_s0_t7
 FR BOUND                 C.theta_s0_t8
 FR BOUND                 C.theta_s0_t9
 FR BOUND                 C.theta_s0_t10
 FR BOUND                 C.theta_s0_t11
 FR BOUND                 C.theta_s0_t12
 FR BOUND                 C.theta_s0_t13
 FR BOUND                 C.theta_s0_t14
 FR BOUND                 C.theta_s0_t15
 FR BOUND                 C.theta_s0_t16
 FR BOUND                 C.theta_s0_t17
 FR BOUND                 C.theta_s0_t18
 FR BOUND                 C.theta_s0_t19
 FR BOUND                 C.theta_s0_t20
 FR BOUND                 C.theta_s0_t21
 FR BOUND                 C.theta_s0_t22
 FR BOUND                 C.theta_s0_t23
 FR BOUND                 C.theta_s0_t24
 FR BOUND                 C.theta_s0_t25
 FR BOUND                 C.theta_s0_t26
 FR BOUND                 C.theta_s0_t27
 FR BOUND                 C.theta_s0_t28
 FR BOUND                 C.theta_s0_t29
 FR BOUND                 C.theta_s0_t30
 FR BOUND                 C.theta_s0_t31
 FR BOUND                 C.theta_s0_t32
 FR BOUND                 C.theta_s0_t33
 FR BOUND                 C.theta_s0_t34
 FR BOUND                 C.theta_s0_t35
 FR BOUND                 C.theta_s0_t36
 FR BOUND                 C.theta_s0_t37
 FR BOUND                 C.theta_s0_t38
 FR BOUND                 C.theta_s0_t39
 FR BOUND                 C.theta_s0_t40
 FR BOUND                 C.theta_s0_t41
 FR BOUND                 C.theta_s0_t42
 FR BOUND                 C.theta_s0_t43
 FR BOUND                 C.theta_s0_t44
 FR BOUND                 C.theta_s0_t45
 FR BOUND                 C.theta_s0_t46
 FR BOUND                 C.theta_s0_t47
 FR BOUND                 C.theta_s0_t48
 FR BOUND                 C.theta_s0_t49
 FR BOUND                 C.theta_s0_t50
 FR BOUND                 C.theta_s0_t51
 FR BOUND                 C.theta_s0_t52
 FR BOUND                 C.theta_s0_t53
 FR BOUND                 C.theta_s0_t54
 FR BOUND                 C.theta_s0_t55
 FR BOUND                 C.theta_s0_t56
 FR BOUND                 C.theta_s0_t57
 FR BOUND                 C.theta_s0_t58
 FR BOUND                 C.theta_s0_t59
 FR BOUND                 C.theta_s0_t60
 FR BOUND                 C.theta_s0_t61
 FR BOUND                 C.theta_s0_t62
 FR BOUND                 C.theta_s0_t63
 FR BOUND                 C.theta_s0_t64
 FR BOUND                 C.theta_s0_t65
 FR BOUND                 C.theta_s0_t66
 FR BOUND                 C.theta_s0_t67
 FR BOUND                 C.theta_s0_t68
 FR BOUND                 C.theta_s0_t69
 FR BOUND                 C.theta_s0_t70
 FR BOUND                 C.theta_s0_t71
 FR BOUND                 C.theta_s0_t72
 FR BOUND                 C.theta_s0_t73
 FR BOUND                 C.theta_s0_t74
 FR BOUND                 C.theta_s0_t75
 FR BOUND                 C.theta_s0_t76
 FR BOUND                 C.theta_s0_t77
 FR BOUND                 C.theta_s0_t78
 FR BOUND                 C.theta_s0_t79
 FR BOUND                 C.theta_s0_t80
 FR BOUND                 C.theta_s0_t81
 FR BOUND                 C.theta_s0_t82
 FR BOUND                 C.theta_s0_t83
 FR BOUND                 C.theta_s0_t84
 FR BOUND                 C.theta_s0_t85
 FR BOUND                 C.theta_s0_t86
 FR BOUND                 C.theta_s0_t87
 FR BOUND                 C.theta_s0_t88
 FR BOUND                 C.theta_s0_t89
 FR BOUND                 C.theta_s0_t90
 FR BOUND                 C.theta_s0_t91
 FR BOUND                 C.theta_s0_t92
 FR BOUND                 C.theta_s0_t93
 FR BOUND                 C.theta_s0_t94
 FR BOUND                 C.theta_s0_t95
 FR BOUND                 C.theta_s0_t96
 FR BOUND                 C.theta_s0_t97
 FR BOUND                 C.theta_s0_t98
 FR BOUND                 C.theta_s0_t99
 FR BOUND                 C.theta_s0_t100
 FR BOUND                 C.theta_s0_t101
 FR BOUND                 C.theta_s0_t102
 FR BOUND                 C.theta_s0_t103
 FR BOUND                 C.theta_s0_t104
 FR BOUND                 C.theta_s0_t105
 FR BOUND                 C.theta_s0_t106
 FR BOUND                 C.theta_s0_t107
 FR BOUND                 C.theta_s0_t108
 FR BOUND                 C.theta_s0_t109
 FR BOUND                 C.theta_s0_t110
 FR BOUND                 C.theta_s0_t111
 FR BOUND                 C.theta_s0_t112
 FR BOUND                 C.theta_s0_t113
 FR BOUND                 C.theta_s0_t114
 FR BOUND                 C.theta_s0_t115
 FR BOUND                 C.theta_s0_t116
 FR BOUND                 C.theta_s0_t117
 FR BOUND                 C.theta_s0_t118
 FR BOUND                 C.theta_s0_t119
 FR BOUND                 C.theta_s0_t120
 FR BOUND                 C.theta_s0_t121
 FR BOUND                 C.theta_s0_t122
 FR BOUND                 C.theta_s0_t123
 FR BOUND                 C.theta_s0_t124
 FR BOUND                 C.theta_s0_t125
 FR BOUND                 C.theta_s0_t126
 FR BOUND                 C.theta_s0_t127
 FR BOUND                 C.theta_s0_t128
 FR BOUND                 C.theta_s0_t129
 FR BOUND                 C.theta_s0_t130
 FR BOUND                 C.theta_s0_t131
 FR BOUND                 C.theta_s0_t132
 FR BOUND                 C.theta_s0_t133
 FR BOUND                 C.theta_s0_t134
 FR BOUND                 C.theta_s0_t135
 FR BOUND                 C.theta_s0_t136
 FR BOUND                 C.theta_s0_t137
 FR BOUND                 C.theta_s0_t138
 FR BOUND                 C.theta_s0_t139
 FR BOUND                 C.theta_s0_t140
 FR BOUND                 C.theta_s0_t141
 FR BOUND                 C.theta_s0_t142
 FR BOUND                 C.theta_s0_t143
 FR BOUND                 C.theta_s0_t144
 FR BOUND                 C.theta_s0_t145
 FR BOUND                 C.theta_s0_t146
 FR BOUND                 C.theta_s0_t147
 FR BOUND                 C.theta_s0_t148
 FR BOUND                 C.theta_s0_t149
 FR BOUND                 C.theta_s0_t150
 FR BOUND                 C.theta_s0_t151
 FR BOUND                 C.theta_s0_t152
 FR BOUND                 C.theta_s0_t153
 FR BOUND                 C.theta_s0_t154
 FR BOUND                 C.theta_s0_t155
 FR BOUND                 C.theta_s0_t156
 FR BOUND                 C.theta_s0_t157
 FR BOUND                 C.theta_s0_t158
 FR BOUND                 C.theta_s0_t159
 FR BOUND                 C.theta_s0_t160
 FR BOUND                 C.theta_s0_t161
 FR BOUND                 C.theta_s0_t162
 FR BOUND                 C.theta_s0_t163
 FR BOUND                 C.theta_s0_t164
 FR BOUND                 C.theta_s0_t165
 FR BOUND                 C.theta_s0_t166
 FR BOUND                 C.theta_s0_t167
 FX BOUND                 G_A.p_nom                200
 FR BOUND                 G_A.p_s0_t0
 FR BOUND                 G_A.p_s0_t1
 FR BOUND                 G_A.p_s0_t2
 FR BOUND                 G_A.p_s0_t3
 FR BOUND                 G_A.p_s0_t4
 FR BOUND                 G_A.p_s0_t5
 FR BOUND                 G_A.p_s0_t6
 FR BOUND                 G_A.p_s0_t7
 FR BOUND                 G_A.p_s0_t8
 FR BOUND                 G_A.p_s0_t9
 FR BOUND                 G_A.p_s0_t10
 FR BOUND                 G_A.p_s0_t11
 FR BOUND                 G_A.p_s0_t12
 FR BOUND                 G_A.p_s0_t13
 FR BOUND                 G_A.p_s0_t14
 FR BOUND                 G_A.p_s0_t15
 FR BOUND                 G_A.p_s0_t16
 FR BOUND                 G_A.p_s0_t17
 FR BOUND                 G_A.p_s0_t18
 FR BOUND                 G_A.p_s0_t19
 FR BOUND                 G_A.p_s0_t20
 FR BOUND                 G_A.p_s0_t21
 FR BOUND                 G_A.p_s0_t22
 FR BOUND                 G_A.p_s0_t23
 FR BOUND                 G_A.p_s0_t24
 FR BOUND                 G_A.p_s0_t25
 FR BOUND                 G_A.p_s0_t26
 FR BOUND                 G_A.p_s0_t27
 FR BOUND                 G_A.p_s0_t28
 FR BOUND                 G_A.p_s0_t29
 FR BOUND                 G_A.p_s0_t30
 FR BOUND                 G_A.p_s0_t31
 FR BOUND                 G_A.p_s0_t32
 FR BOUND                 G_A.p_s0_t33
 FR BOUND                 G_A.p_s0_t34
 FR BOUND                 G_A.p_s0_t35
 FR BOUND                 G_A.p_s0_t36
 FR BOUND                 G_A.p_s0_t37
 FR BOUND                 G_A.p_s0_t38
 FR BOUND                 G_A.p_s0_t39
 FR BOUND                 G_A.p_s0_t40
 FR BOUND                 G_A.p_s0_t41
 FR BOUND                 G_A.p_s0_t42
 FR BOUND                 G_A.p_s0_t43
 FR BOUND                 G_A.p_s0_t44
 FR BOUND                 G_A.p_s0_t45
 FR BOUND                 G_A.p_s0_t46
 FR BOUND                 G_A.p_s0_t47
 FR BOUND                 G_A.p_s0_t48
 FR BOUND                 G_A.p_s0_t49
 FR BOUND                 G_A.p_s0_t50
 FR BOUND                 G_A.p_s0_t51
 FR BOUND                 G_A.p_s0_t52
 FR BOUND                 G_A.p_s0_t53
 FR BOUND                 G_A.p_s0_t54
 FR BOUND                 G_A.p_s0_t55
 FR BOUND                 G_A.p_s0_t56
 FR BOUND                 G_A.p_s0_t57
 FR BOUND                 G_A.p_s0_t58
 FR BOUND                 G_A.p_s0_t59
 FR BOUND                 G_A.p_s0_t60
 FR BOUND                 G_A.p_s0_t61
 FR BOUND                 G_A.p_s0_t62
 FR BOUND                 G_A.p_s0_t63
 FR BOUND                 G_A.p_s0_t64
 FR BOUND                 G_A.p_s0_t65
 FR BOUND                 G_A.p_s0_t66
 FR BOUND                 G_A.p_s0_t67
 FR BOUND                 G_A.p_s0_t68
 FR BOUND                 G_A.p_s0_t69
 FR BOUND                 G_A.p_s0_t70
 FR BOUND                 G_A.p_s0_t71
 FR BOUND                 G_A.p_s0_t72
 FR BOUND                 G_A.p_s0_t73
 FR BOUND                 G_A.p_s0_t74
 FR BOUND                 G_A.p_s0_t75
 FR BOUND                 G_A.p_s0_t76
 FR BOUND                 G_A.p_s0_t77
 FR BOUND                 G_A.p_s0_t78
 FR BOUND                 G_A.p_s0_t79
 FR BOUND                 G_A.p_s0_t80
 FR BOUND                 G_A.p_s0_t81
 FR BOUND                 G_A.p_s0_t82
 FR BOUND                 G_A.p_s0_t83
 FR BOUND                 G_A.p_s0_t84
 FR BOUND                 G_A.p_s0_t85
 FR BOUND                 G_A.p_s0_t86
 FR BOUND                 G_A.p_s0_t87
 FR BOUND                 G_A.p_s0_t88
 FR BOUND                 G_A.p_s0_t89
 FR BOUND                 G_A.p_s0_t90
 FR BOUND                 G_A.p_s0_t91
 FR BOUND                 G_A.p_s0_t92
 FR BOUND                 G_A.p_s0_t93
 FR BOUND                 G_A.p_s0_t94
 FR BOUND                 G_A.p_s0_t95
 FR BOUND                 G_A.p_s0_t96
 FR BOUND                 G_A.p_s0_t97
 FR BOUND                 G_A.p_s0_t98
 FR BOUND                 G_A.p_s0_t99
 FR BOUND                 G_A.p_s0_t100
 FR BOUND                 G_A.p_s0_t101
 FR BOUND                 G_A.p_s0_t102
 FR BOUND                 G_A.p_s0_t103
 FR BOUND                 G_A.p_s0_t104
 FR BOUND                 G_A.p_s0_t105
 FR BOUND                 G_A.p_s0_t106
 FR BOUND                 G_A.p_s0_t107
 FR BOUND                 G_A.p_s0_t108
 FR BOUND                 G_A.p_s0_t109
 FR BOUND                 G_A.p_s0_t110
 FR BOUND                 G_A.p_s0_t111
 FR BOUND                 G_A.p_s0_t112
 FR BOUND                 G_A.p_s0_t113
 FR BOUND                 G_A.p_s0_t114
 FR BOUND                 G_A.p_s0_t115
 FR BOUND                 G_A.p_s0_t116
 FR BOUND                 G_A.p_s0_t117
 FR BOUND                 G_A.p_s0_t118
 FR BOUND                 G_A.p_s0_t119
 FR BOUND                 G_A.p_s0_t120
 FR BOUND                 G_A.p_s0_t121
 FR BOUND                 G_A.p_s0_t122
 FR BOUND                 G_A.p_s0_t123
 FR BOUND                 G_A.p_s0_t124
 FR BOUND                 G_A.p_s0_t125
 FR BOUND                 G_A.p_s0_t126
 FR BOUND                 G_A.p_s0_t127
 FR BOUND                 G_A.p_s0_t128
 FR BOUND                 G_A.p_s0_t129
 FR BOUND                 G_A.p_s0_t130
 FR BOUND                 G_A.p_s0_t131
 FR BOUND                 G_A.p_s0_t132
 FR BOUND                 G_A.p_s0_t133
 FR BOUND                 G_A.p_s0_t134
 FR BOUND                 G_A.p_s0_t135
 FR BOUND                 G_A.p_s0_t136
 FR BOUND                 G_A.p_s0_t137
 FR BOUND                 G_A.p_s0_t138
 FR BOUND                 G_A.p_s0_t139
 FR BOUND                 G_A.p_s0_t140
 FR BOUND                 G_A.p_s0_t141
 FR BOUND                 G_A.p_s0_t142
 FR BOUND                 G_A.p_s0_t143
 FR BOUND                 G_A.p_s0_t144
 FR BOUND                 G_A.p_s0_t145
 FR BOUND                 G_A.p_s0_t146
 FR BOUND                 G_A.p_s0_t147
 FR BOUND                 G_A.p_s0_t148
 FR BOUND                 G_A.p_s0_t149
 FR BOUND                 G_A.p_s0_t150
 FR BOUND                 G_A.p_s0_t151
 FR BOUND                 G_A.p_s0_t152
 FR BOUND                 G_A.p_s0_t153
 FR BOUND                 G_A.p_s0_t154
 FR BOUND                 G_A.p_s0_t155
 FR BOUND                 G_A.p_s0_t156
 FR BOUND                 G_A.p_s0_t157
 FR BOUND                 G_A.p_s0_t158
 FR BOUND                 G_A.p_s0_t159
 FR BOUND                 G_A.p_s0_t160
 FR BOUND                 G_A.p_s0_t161
 FR BOUND                 G_A.p_s0_t162
 FR BOUND                 G_A.p_s0_t163
 FR BOUND                 G_A.p_s0_t164
 FR BOUND                 G_A.p_s0_t165
 FR BOUND                 G_A.p_s0_t166
 FR BOUND                 G_A.p_s0_t167
 FX BOUND                 AB.p_nom                 100
 FR BOUND                 AB.p0_s0_t0
 FR BOUND                 AB.p0_s0_t1
 FR BOUND                 AB.p0_s0_t2
 FR BOUND                 AB.p0_s0_t3
 FR BOUND                 AB.p0_s0_t4
 FR BOUND                 AB.p0_s0_t5
 FR BOUND                 AB.p0_s0_t6
 FR BOUND                 AB.p0_s0_t7
 FR BOUND                 AB.p0_s0_t8
 FR BOUND                 AB.p0_s0_t9
 FR BOUND                 AB.p0_s0_t10
 FR BOUND                 AB.p0_s0_t11
 FR BOUND                 AB.p0_s0_t12
 FR BOUND                 AB.p0_s0_t13
 FR BOUND                 AB.p0_s0_t14
 FR BOUND                 AB.p0_s0_t15
 FR BOUND                 AB.p0_s0_t16
 FR BOUND                 AB.p0_s0_t17
 FR BOUND                 AB.p0_s0_t18
 FR BOUND                 AB.p0_s0_t19
 FR BOUND                 AB.p0_s0_t20
 FR BOUND                 AB.p0_s0_t21
 FR BOUND                 AB.p0_s0_t22
 FR BOUND                 AB.p0_s0_t23
 FR BOUND                 AB.p0_s0_t24
 FR BOUND                 AB.p0_s0_t25
 FR BOUND                 AB.p0_s0_t26
 FR BOUND                 AB.p0_s0_t27
 FR BOUND                 AB.p0_s0_t28
 FR BOUND                 AB.p0_s0_t29
 FR BOUND                 AB.p0_s0_t30
 FR BOUND                 AB.p0_s0_t31
 FR BOUND                 AB.p0_s0_t32
 FR BOUND                 AB.p0_s0_t33
 FR BOUND                 AB.p0_s0_t34
 FR BOUND                 AB.p0_s0_t35
 FR BOUND                 AB.p0_s0_t36
 FR BOUND                 AB.p0_s0_t37
 FR BOUND                 AB.p0_s0_t38
 FR BOUND                 AB.p0_s0_t39
 FR BOUND                 AB.p0_s0_t40
 FR BOUND                 AB.p0_s0_t41
 FR BOUND                 AB.p0_s0_t42
 FR BOUND                 AB.p0_s0_t43
 FR BOUND                 AB.p0_s0_t44
 FR BOUND                 AB.p0_s0_t45
 FR BOUND                 AB.p0_s0_t46
 FR BOUND                 AB.p0_s0_t47
 FR BOUND                 AB.p0_s0_t48
 FR BOUND                 AB.p0_s0_t49
 FR BOUND                 AB.p0_s0_t50
 FR BOUND                 AB.p0_s0_t51
 FR BOUND                 AB.p0_s0_t52
 FR BOUND                 AB.p0_s0_t53
 FR BOUND                 AB.p0_s0_t54
 FR BOUND                 AB.p0_s0_t55
 FR BOUND                 AB.p0_s0_t56
 FR BOUND                 AB.p0_s0_t57
 FR BOUND                 AB.p0_s0_t58
 FR BOUND                 AB.p0_s0_t59
 FR BOUND                 AB.p0_s0_t60
 FR BOUND                 AB.p0_s0_t61
 FR BOUND                 AB.p0_s0_t62
 FR BOUND                 AB.p0_s0_t63
 FR BOUND                 AB.p0_s0_t64
 FR BOUND                 AB.p0_s0_t65
 FR BOUND                 AB.p0_s0_t66
 FR BOUND                 AB.p0_s0_t67
 FR BOUND                 AB.p0_s0_t68
 FR BOUND                 AB.p0_s0_t69
 FR BOUND                 AB.p0_s0_t70
 FR BOUND                 AB.p0_s0_t71
 FR BOUND                 AB.p0_s0_t72
 FR BOUND                 AB.p0_s0_t73
 FR BOUND                 AB.p0_s0_t74
 FR BOUND                 AB.p0_s0_t75
 FR BOUND                 AB.p0_s0_t76
 FR BOUND                 AB.p0_s0_t77
 FR BOUND                 AB.p0_s0_t78
 FR BOUND                 AB.p0_s0_t79
 FR BOUND                 AB.p0_s0_t80
 FR BOUND                 AB.p0_s0_t81
 FR BOUND                 AB.p0_s0_t82
 FR BOUND                 AB.p0_s0_t83
 FR BOUND                 AB.p0_s0_t84
 FR BOUND                 AB.p0_s0_t85
 FR BOUND                 AB.p0_s0_t86
 FR BOUND                 AB.p0_s0_t87
 FR BOUND                 AB.p0_s0_t88
 FR BOUND                 AB.p0_s0_t89
 FR BOUND                 AB.p0_s0_t90
 FR BOUND                 AB.p0_s0_t91
 FR BOUND                 AB.p0_s0_t92
 FR BOUND                 AB.p0_s0_t93
 FR BOUND                 AB.p0_s0_t94
 FR BOUND                 AB.p0_s0_t95
 FR BOUND                 AB.p0_s0_t96
 FR BOUND                 AB.p0_s0_t97
 FR BOUND                 AB.p0_s0_t98
 FR BOUND                 AB.p0_s0_t99
 FR BOUND                 AB.p0_s0_t100
 FR BOUND                 AB.p0_s0_t101
 FR BOUND                 AB.p0_s0_t102
 FR BOUND                 AB.p0_s0_t103
 FR BOUND                 AB.p0_s0_t104
 FR BOUND                 AB.p0_s0_t105
 FR BOUND                 AB.p0_s0_t106
 FR BOUND                 AB.p0_s0_t107
 FR BOUND                 AB.p0_s0_t108
 FR BOUND                 AB.p0_s0_t109
 FR BOUND                 AB.p0_s0_t110
 FR BOUND                 AB.p0_s0_t111
 FR BOUND                 AB.p0_s0_t112
 FR BOUND                 AB.p0_s0_t113
 FR BOUND                 AB.p0_s0_t114
 FR BOUND                 AB.p0_s0_t115
 FR BOUND                 AB.p0_s0_t116
 FR BOUND                 AB.p0_s0_t117
 FR BOUND                 AB.p0_s0_t118
 FR BOUND                 AB.p0_s0_t119
 FR BOUND                 AB.p0_s0_t120
 FR BOUND                 AB.p0_s0_t121
 FR BOUND                 AB.p0_s0_t122
 FR BOUND                 AB.p0_s0_t123
 FR BOUND                 AB.p0_s0_t124
 FR BOUND                 AB.p0_s0_t125
 FR BOUND                 AB.p0_s0_t126
 FR BOUND                 AB.p0_s0_t127
 FR BOUND                 AB.p0_s0_t128
 FR BOUND                 AB.p0_s0_t129
 FR BOUND                 AB.p0_s0_t130
 FR BOUND                 AB.p0_s0_t131
 FR BOUND                 AB.p0_s0_t132
 FR BOUND                 AB.p0_s0_t133
 FR BOUND                 AB.p0_s0_t134
 FR BOUND                 AB.p0_s0_t135
 FR BOUND                 AB.p0_s0_t136
 FR BOUND                 AB.p0_s0_t137
 FR BOUND                 AB.p0_s0_t138
 FR BOUND                 AB.p0_s0_t139
 FR BOUND                 AB.p0_s0_t140
 FR BOUND                 AB.p0_s0_t141
 FR BOUND                 AB.p0_s0_t142
 FR BOUND                 AB.p0_s0_t143
 FR BOUND                 AB.p0_s0_t144
 FR BOUND                 AB.p0_s0_t145
 FR BOUND                 AB.p0_s0_t146
 FR BOUND                 AB.p0_s0_t147
 FR BOUND                 AB.p0_s0_t148
 FR BOUND                 AB.p0_s0_t149
 FR BOUND                 AB.p0_s0_t150
 FR BOUND                 AB.p0_s0_t151
 FR BOUND                 AB.p0_s0_t152
 FR BOUND                 AB.p0_s0_t153
 FR BOUND                 AB.p0_s0_t154
 FR BOUND                 AB.p0_s0_t155
 FR BOUND                 AB.p0_s0_t156
 FR BOUND                 AB.p0_s0_t157
 FR BOUND                 AB.p0_s0_t158
 FR BOUND                 AB.p0_s0_t159
 FR BOUND                 AB.p0_s0_t160
 FR BOUND                 AB.p0_s0_t161
 FR BOUND                 AB.p0_s0_t162
 FR BOUND                 AB.p0_s0_t163
 FR BOUND                 AB.p0_s0_t164
 FR BOUND                 AB.p0_s0_t165
 FR BOUND                 AB.p0_s0_t166
 FR BOUND                 AB.p0_s0_t167
 FX BOUND                 BC.p_nom                 100
 FR BOUND                 BC.p0_s0_t0
 FR BOUND                 BC.p0_s0_t1
 FR BOUND                 BC.p0_s0_t2
 FR BOUND                 BC.p0_s0_t3
 FR BOUND                 BC.p0_s0_t4
 FR BOUND                 BC.p0_s0_t5
 FR BOUND                 BC.p0_s0_t6
 FR BOUND                 BC.p0_s0_t7
 FR BOUND                 BC.p0_s0_t8
 FR BOUND                 BC.p0_s0_t9
 FR BOUND                 BC.p0_s0_t10
 FR BOUND                 BC.p0_s0_t11
 FR BOUND                 BC.p0_s0_t12
 FR BOUND                 BC.p0_s0_t13
 FR BOUND                 BC.p0_s0_t14
 FR BOUND                 BC.p0_s0_t15
 FR BOUND                 BC.p0_s0_t16
 FR BOUND                 BC.p0_s0_t17
 FR BOUND                 BC.p0_s0_t18
 FR BOUND                 BC.p0_s0_t19
 FR BOUND                 BC.p0_s0_t20
 FR BOUND                 BC.p0_s0_t21
 FR BOUND                 BC.p0_s0_t22
 FR BOUND                 BC.p0_s0_t23
 FR BOUND                 BC.p0_s0_t24
 FR BOUND                 BC.p0_s0_t25
 FR BOUND                 BC.p0_s0_t26
 FR BOUND                 BC.p0_s0_t27
 FR BOUND                 BC.p0_s0_t28
 FR BOUND                 BC.p0_s0_t29
 FR BOUND                 BC.p0_s0_t30
 FR BOUND                 BC.p0_s0_t31
 FR BOUND                 BC.p0_s0_t32
 FR BOUND                 BC.p0_s0_t33
 FR BOUND                 BC.p0_s0_t34
 FR BOUND                 BC.p0_s0_t35
 FR BOUND                 BC.p0_s0_t36
 FR BOUND                 BC.p0_s0_t37
 FR BOUND                 BC.p0_s0_t38
 FR BOUND                 BC.p0_s0_t39
 FR BOUND                 BC.p0_s0_t40
 FR BOUND                 BC.p0_s0_t41
 FR BOUND                 BC.p0_s0_t42
 FR BOUND                 BC.p0_s0_t43
 FR BOUND                 BC.p0_s0_t44
 FR BOUND                 BC.p0_s0_t45
 FR BOUND                 BC.p0_s0_t46
 FR BOUND                 BC.p0_s0_t47
 FR BOUND                 BC.p0_s0_t48
 FR BOUND                 BC.p0_s0_t49
 FR BOUND                 BC.p0_s0_t50
 FR BOUND                 BC.p0_s0_t51
 FR BOUND                 BC.p0_s0_t52
 FR BOUND                 BC.p0_s0_t53
 FR BOUND                 BC.p0_s0_t54
 FR BOUND                 BC.p0_s0_t55
 FR BOUND                 BC.p0_s0_t56
 FR BOUND                 BC.p0_s0_t57
 FR BOUND                 BC.p0_s0_t58
 FR BOUND                 BC.p0_s0_t59
 FR BOUND                 BC.p0_s0_t60
 FR BOUND                 BC.p0_s0_t61
 FR BOUND                 BC.p0_s0_t62
 FR BOUND                 BC.p0_s0_t63
 FR BOUND                 BC.p0_s0_t64
 FR BOUND                 BC.p0_s0_t65
 FR BOUND                 BC.p0_s0_t66
 FR BOUND                 BC.p0_s0_t67
 FR BOUND                 BC.p0_s0_t68
 FR BOUND                 BC.p0_s0_t69
 FR BOUND                 BC.p0_s0_t70
 FR BOUND                 BC.p0_s0_t71
 FR BOUND                 BC.p0_s0_t72
 FR BOUND                 BC.p0_s0_t73
 FR BOUND                 BC.p0_s0_t74
 FR BOUND                 BC.p0_s0_t75
 FR BOUND                 BC.p0_s0_t76
 FR BOUND                 BC.p0_s0_t77
 FR BOUND                 BC.p0_s0_t78
 FR BOUND                 BC.p0_s0_t79
 FR BOUND                 BC.p0_s0_t80
 FR BOUND                 BC.p0_s0_t81
 FR BOUND                 BC.p0_s0_t82
 FR BOUND                 BC.p0_s0_t83
 FR BOUND                 BC.p0_s0_t84
 FR BOUND                 BC.p0_s0_t85
 FR BOUND                 BC.p0_s0_t86
 FR BOUND                 BC.p0_s0_t87
 FR BOUND                 BC.p0_s0_t88
 FR BOUND                 BC.p0_s0_t89
 FR BOUND                 BC.p0_s0_t90
 FR BOUND                 BC.p0_s0_t91
 FR BOUND                 BC.p0_s0_t92
 FR BOUND                 BC.p0_s0_t93
 FR BOUND                 BC.p0_s0_t94
 FR BOUND                 BC.p0_s0_t95
 FR BOUND                 BC.p0_s0_t96
 FR BOUND                 BC.p0_s0_t97
 FR BOUND                 BC.p0_s0_t98
 FR BOUND                 BC.p0_s0_t99
 FR BOUND                 BC.p0_s0_t100
 FR BOUND                 BC.p0_s0_t101
 FR BOUND                 BC.p0_s0_t102
 FR BOUND                 BC.p0_s0_t103
 FR BOUND                 BC.p0_s0_t104
 FR BOUND                 BC.p0_s0_t105
 FR BOUND                 BC.p0_s0_t106
 FR BOUND                 BC.p0_s0_t107
 FR BOUND                 BC.p0_s0_t108
 FR BOUND                 BC.p0_s0_t109
 FR BOUND                 BC.p0_s0_t110
 FR BOUND                 BC.p0_s0_t111
 FR BOUND                 BC.p0_s0_t112
 FR BOUND                 BC.p0_s0_t113
 FR BOUND                 BC.p0_s0_t114
 FR BOUND                 BC.p0_s0_t115
 FR BOUND                 BC.p0_s0_t116
 FR BOUND                 BC.p0_s0_t117
 FR BOUND                 BC.p0_s0_t118
 FR BOUND                 BC.p0_s0_t119
 FR BOUND                 BC.p0_s0_t120
 FR BOUND                 BC.p0_s0_t121
 FR BOUND                 BC.p0_s0_t122
 FR BOUND                 BC.p0_s0_t123
 FR BOUND                 BC.p0_s0_t124
 FR BOUND                 BC.p0_s0_t125
 FR BOUND                 BC.p0_s0_t126
 FR BOUND                 BC.p0_s0_t127
 FR BOUND                 BC.p0_s0_t128
 FR BOUND                 BC.p0_s0_t129
 FR BOUND                 BC.p0_s0_t130
 FR BOUND                 BC.p0_s0_t131
 FR BOUND                 BC.p0_s0_t132
 FR BOUND                 BC.p0_s0_t133
 FR BOUND                 BC.p0_s0_t134
 FR BOUND                 BC.p0_s0_t135
 FR BOUND                 BC.p0_s0_t136
 FR BOUND                 BC.p0_s0_t137
 FR BOUND                 BC.p0_s0_t138
 FR BOUND                 BC.p0_s0_t139
 FR BOUND                 BC.p0_s0_t140
 FR BOUND                 BC.p0_s0_t141
 FR BOUND                 BC.p0_s0_t142
 FR BOUND                 BC.p0_s0_t143
 FR BOUND                 BC.p0_s0_t144
 FR BOUND                 BC.p0_s0_t145
 FR BOUND                 BC.p0_s0_t146
 FR BOUND                 BC.p0_s0_t147
 FR BOUND                 BC.p0_s0_t148
 FR BOUND                 BC.p0_s0_t149
 FR BOUND                 BC.p0_s0_t150
 FR BOUND                 BC.p0_s0_t151
 FR BOUND                 BC.p0_s0_t152
 FR BOUND                 BC.p0_s0_t153
 FR BOUND                 BC.p0_s0_t154
 FR BOUND                 BC.p0_s0_t155
 FR BOUND                 BC.p0_s0_t156
 FR BOUND                 BC.p0_s0_t157
 FR BOUND                 BC.p0_s0_t158
 FR BOUND                 BC.p0_s0_t159
 FR BOUND                 BC.p0_s0_t160
 FR BOUND                 BC.p0_s0_t161
 FR BOUND                 BC.p0_s0_t162
 FR BOUND                 BC.p0_s0_t163
 FR BOUND                 BC.p0_s0_t164
 FR BOUND                 BC.p0_s0_t165
 FR BOUND                 BC.p0_s0_t166
 FR BOUND                 BC.p0_s0_t167
 FX BOUND                 AC.p_nom                 100
 FR BOUND                 AC.p0_s0_t0
 FR BOUND                 AC.p0_s0_t1
 FR BOUND                 AC.p0_s0_t2
 FR BOUND                 AC.p0_s0_t3
 FR BOUND                 AC.p0_s0_t4
 FR BOUND                 AC.p0_s0_t5
 FR BOUND                 AC.p0_s0_t6
 FR BOUND                 AC.p0_s0_t7
 FR BOUND                 AC.p0_s0_t8
 FR BOUND                 AC.p0_s0_t9
 FR BOUND                 AC.p0_s0_t10
 FR BOUND                 AC.p0_s0_t11
 FR BOUND                 AC.p0_s0_t12
 FR BOUND                 AC.p0_s0_t13
 FR BOUND                 AC.p0_s0_t14
 FR BOUND                 AC.p0_s0_t15
 FR BOUND                 AC.p0_s0_t16
 FR BOUND                 AC.p0_s0_t17
 FR BOUND                 AC.p0_s0_t18
 FR BOUND                 AC.p0_s0_t19
 FR BOUND                 AC.p0_s0_t20
 FR BOUND                 AC.p0_s0_t21
 FR BOUND                 AC.p0_s0_t22
 FR BOUND                 AC.p0_s0_t23
 FR BOUND                 AC.p0_s0_t24
 FR BOUND                 AC.p0_s0_t25
 FR BOUND                 AC.p0_s0_t26
 FR BOUND                 AC.p0_s0_t27
 FR BOUND                 AC.p0_s0_t28
 FR BOUND                 AC.p0_s0_t29
 FR BOUND                 AC.p0_s0_t30
 FR BOUND                 AC.p0_s0_t31
 FR BOUND                 AC.p0_s0_t32
 FR BOUND                 AC.p0_s0_t33
 FR BOUND                 AC.p0_s0_t34
 FR BOUND                 AC.p0_s0_t35
 FR BOUND                 AC.p0_s0_t36
 FR BOUND                 AC.p0_s0_t37
 FR BOUND                 AC.p0_s0_t38
 FR BOUND                 AC.p0_s0_t39
 FR BOUND                 AC.p0_s0_t40
 FR BOUND                 AC.p0_s0_t41
 FR BOUND                 AC.p0_s0_t42
 FR BOUND                 AC.p0_s0_t43
 FR BOUND                 AC.p0_s0_t44
 FR BOUND                 AC.p0_s0_t45
 FR BOUND                 AC.p0_s0_t46
 FR BOUND                 AC.p0_s0_t47
 FR BOUND                 AC.p0_s0_t48
 FR BOUND                 AC.p0_s0_t49
 FR BOUND                 AC.p0_s0_t50
 FR BOUND                 AC.p0_s0_t51
 FR BOUND                 AC.p0_s0_t52
 FR BOUND                 AC.p0_s0_t53
 FR BOUND                 AC.p0_s0_t54
 FR BOUND                 AC.p0_s0_t55
 FR BOUND                 AC.p0_s0_t56
 FR BOUND                 AC.p0_s0_t57
 FR BOUND                 AC.p0_s0_t58
 FR BOUND                 AC.p0_s0_t59
 FR BOUND                 AC.p0_s0_t60
 FR BOUND                 AC.p0_s0_t61
 FR BOUND                 AC.p0_s0_t62
 FR BOUND                 AC.p0_s0_t63
 FR BOUND                 AC.p0_s0_t64
 FR BOUND                 AC.p0_s0_t65
 FR BOUND                 AC.p0_s0_t66
 FR BOUND                 AC.p0_s0_t67
 FR BOUND                 AC.p0_s0_t68
 FR BOUND                 AC.p0_s0_t69
 FR BOUND                 AC.p0_s0_t70
 FR BOUND                 AC.p0_s0_t71
 FR BOUND                 AC.p0_s0_t72
 FR BOUND                 AC.p0_s0_t73
 FR BOUND                 AC.p0_s0_t74
 FR BOUND                 AC.p0_s0_t75
 FR BOUND                 AC.p0_s0_t76
 FR BOUND                 AC.p0_s0_t77
 FR BOUND                 AC.p0_s0_t78
 FR BOUND                 AC.p0_s0_t79
 FR BOUND                 AC.p0_s0_t80
 FR BOUND                 AC.p0_s0_t81
 FR BOUND                 AC.p0_s0_t82
 FR BOUND                 AC.p0_s0_t83
 FR BOUND                 AC.p0_s0_t84
 FR BOUND                 AC.p0_s0_t85
 FR BOUND                 AC.p0_s0_t86
 FR BOUND                 AC.p0_s0_t87
 FR BOUND                 AC.p0_s0_t88
 FR BOUND                 AC.p0_s0_t89
 FR BOUND                 AC.p0_s0_t90
 FR BOUND                 AC.p0_s0_t91
 FR BOUND                 AC.p0_s0_t92
 FR BOUND                 AC.p0_s0_t93
 FR BOUND                 AC.p0_s0_t94
 FR BOUND                 AC.p0_s0_t95
 FR BOUND                 AC.p0_s0_t96
 FR BOUND                 AC.p0_s0_t97
 FR BOUND                 AC.p0_s0_t98
 FR BOUND                 AC.p0_s0_t99
 FR BOUND                 AC.p0_s0_t100
 FR BOUND                 AC.p0_s0_t101
 FR BOUND                 AC.p0_s0_t102
 FR BOUND                 AC.p0_s0_t103
 FR BOUND                 AC.p0_s0_t104
 FR BOUND                 AC.p0_s0_t105
 FR BOUND                 AC.p0_s0_t106
 FR BOUND                 AC.p0_s0_t107
 FR BOUND                 AC.p0_s0_t108
 FR BOUND                 AC.p0_s0_t109
 FR BOUND                 AC.p0_s0_t110
 FR BOUND                 AC.p0_s0_t111
 FR BOUND                 AC.p0_s0_t112
 FR BOUND                 AC.p0_s0_t113
 FR BOUND                 AC.p0_s0_t114
 FR BOUND                 AC.p0_s0_t115
 FR BOUND                 AC.p0_s0_t116
 FR BOUND                 AC.p0_s0_t117
 FR BOUND                 AC.p0_s0_t118
 FR BOUND                 AC.p0_s0_t119
 FR BOUND                 AC.p0_s0_t120
 FR BOUND                 AC.p0_s0_t121
 FR BOUND                 AC.p0_s0_t122
 FR BOUND                 AC.p0_s0_t123
 FR BOUND                 AC.p0_s0_t124
 FR BOUND                 AC.p0_s0_t125
 FR BOUND                 AC.p0_s0_t126
 FR BOUND                 AC.p0_s0_t127
 FR BOUND                 AC.p0_s0_t128
 FR BOUND                 AC.p0_s0_t129
 FR BOUND                 AC.p0_s0_t130
 FR BOUND                 AC.p0_s0_t131
 FR BOUND                 AC.p0_s0_t132
 FR BOUND                 AC.p0_s0_t133
 FR BOUND                 AC.p0_s0_t134
 FR BOUND                 AC.p0_s0_t135
 FR BOUND                 AC.p0_s0_t136
 FR BOUND                 AC.p0_s0_t137
 FR BOUND                 AC.p0_s0_t138
 FR BOUND                 AC.p0_s0_t139
 FR BOUND                 AC.p0_s0_t140
 FR BOUND                 AC.p0_s0_t141
 FR BOUND                 AC.p0_s0_t142
 FR BOUND                 AC.p0_s0_t143
 FR BOUND                 AC.p0_s0_t144
 FR BOUND                 AC.p0_s0_t145
 FR BOUND                 AC.p0_s0_t146
 FR BOUND                 AC.p0_s0_t147
 FR BOUND                 AC.p0_s0_t148
 FR BOUND                 AC.p0_s0_t149
 FR BOUND                 AC.p0_s0_t150
 FR BOUND                 AC.p0_s0_t151
 FR BOUND                 AC.p0_s0_t152
 FR BOUND                 AC.p0_s0_t153
 FR BOUND                 AC.p0_s0_t154
 FR BOUND                 AC.p0_s0_t155
 FR BOUND                 AC.p0_s0_t156
 FR BOUND                 AC.p0_s0_t157
 FR BOUND                 AC.p0_s0_t158
 FR BOUND                 AC.p0_s0_t159
 FR BOUND                 AC.p0_s0_t160
 FR BOUND                 AC.p0_s0_t161
 FR BOUND                 AC.p0_s0_t162
 FR BOUND                 AC.p0_s0_t163
 FR BOUND                 AC.p0_s0_t164
 FR BOUND                 AC.p0_s0_t165
 FR BOUND                 AC.p0_s0_t166
 FR BOUND                 AC.p0_s0_t167
ENDATA
